generated by phonopy
   1.0
     3.0874251342029790    0.0000000187781943    0.0000000324988828
    -1.0291417592284446    2.9108523148471503    0.0000000325048032
    -1.0291417592495964   -1.4554262682208841    2.5208719873097789
Zr
   1
Direct
  0.0000000000000000  0.0000000000000000  0.0000000000000000
