generated by phonopy
   1.0
     3.0874251375464645    0.0000000187782453    0.0000000324989706
    -1.0291417603428923    2.9108523179994354    0.0000000325048913
    -1.0291417603640447   -1.4554262697969498    2.5208719900397818
Zr
   1
Direct
  0.0000000000000000  0.0000000000000000  0.0000000000000000
