generated by phonopy
   1.0
     3.0874251365394181    0.0000000187782161    0.0000000324989205
    -1.0291417600072372    2.9108523170499740    0.0000000325048418
    -1.0291417600283892   -1.4554262693222619    2.5208719892174996
Zr
   1
Direct
  0.0000000000000000  0.0000000000000000  0.0000000000000000
