generated by phonopy
   1.0
    15.9923497217343744   -0.0000000000015236   -0.0000000000010772
     7.9961748610645493   13.8497811253384029    0.0000000000003944
     7.9961748610645493    4.6165937083140518   13.0576988688087816
Na Cl
  64   64
Direct
  0.0010971994614081  0.0056613541319005  0.9958673658229880
  0.2511355108515620  0.9973863381887632  0.9939674273796527
  0.4906205823027516  0.0043616268510116  0.0060497199638676
  0.7679518364328114  0.0033421473325295  0.9768180331613258
  0.0227483072791291  0.2574805704351433  0.9871950757253886
  0.2566752334621484  0.2525417794689921  0.9911119153885464
  0.4869750186220208  0.2632782043160309  0.9860407500188885
  0.7454330344119705  0.2596818088810233  0.9875837541706964
  0.9898474797496529  0.4984373059795413  0.0113885897609990
  0.2459573035830835  0.5164443868503650  0.0107553842173039
  0.4949240042347819  0.5125178612082867  0.0031912902654173
  0.7326103060056303  0.5055881033430096  0.0196361687118596
  0.9864745750337076  0.7303328946769401  0.0167167781302483
  0.2487085961997590  0.7442364823919585  0.0001431842786463
  0.4855178476882189  0.7463422361977218  0.0152801180918471
  0.7504858187109952  0.7477156459432858  0.9963622169196814
  0.9935259796948692  0.9946162596672515  0.2717350031023742
  0.2382389814927590  0.0148499480869628  0.2338822981972405
  0.4974295062005647  0.0015797560597414  0.2396874636744487
  0.7526118305592407  0.0140005217219420  0.2349333016301860
  0.9902492797541121  0.2449689446606151  0.2637944695559974
  0.2630106539984317  0.2438752520325979  0.2465701786717165
  0.5240395698003260  0.2423094570948477  0.2421272398853026
  0.7466464859308412  0.2471287532564161  0.2705058423535452
  0.0105038334848958  0.4978948186125172  0.2358786992920155
  0.2572584136969184  0.4874310618111024  0.2636200678575459
  0.5013949823572346  0.5030642606592564  0.2522309993722934
  0.7564247588038926  0.4930490727405422  0.2532884958238594
  0.0093868509920945  0.7454588285493797  0.2403130050654038
  0.2578377993809986  0.7548269621992112  0.2598138072200655
  0.5067074188290308  0.7569892742060926  0.2400711129474650
  0.7461904705589995  0.7393561060285199  0.2679592404520903
  0.9978891293712185  0.9983236253635763  0.5027043004599986
  0.2713776673872949  0.0049181993384980  0.4745661713399057
  0.4840583887053140  0.9893346660744714  0.5220561808575951
  0.7461797602453546  0.9979739627295783  0.5009246499011095
  0.9997700505454349  0.2486902107377122  0.5001814967955563
  0.2535956069545611  0.2416640602381905  0.5014872035337852
  0.4847351329305666  0.2684435176293559  0.5086597348551249
  0.7590871092762834  0.2526283959089008  0.4900049748241384
  0.9968732769280385  0.4906111939451656  0.5202902007575702
  0.2598396471587591  0.5001264053000241  0.5073539593965749
  0.4903922150241120  0.5015509052115895  0.4988457967561871
  0.7524591350302933  0.4998792175515311  0.4950034014958013
  0.0100080372426547  0.7610112710237630  0.4903728667086714
  0.2520023414996275  0.7617574830966217  0.4764255454632073
  0.4969230274964371  0.7555716199063486  0.4722395144173879
  0.7565332487524092  0.7517363074513629  0.4925953032503969
  0.0126262716489516  0.0020815819493215  0.7403291173603043
  0.2508379274403921  0.0077235913405770  0.7316068402343342
  0.4927574947552100  0.0053015024690684  0.7379175430861236
  0.7359053626017690  0.0137733345507512  0.7458553229695204
  0.9928289526651717  0.2778811261374052  0.7408156752297754
  0.2340067471046291  0.2514414985165604  0.7511070038284726
  0.5162241326586916  0.2578692046236327  0.7422250673858569
  0.7463576247457039  0.2542270550066935  0.7552806234915944
  0.9913343951299302  0.5098186011346157  0.7623174734332029
  0.2382464003579257  0.5169077484516301  0.7331005968412408
  0.4879641159739858  0.4886673384361529  0.7572740974643031
  0.7694713853438830  0.5061512876103198  0.7446021621021269
  0.9999060543162716  0.7400297429064950  0.7480110652061995
  0.2603198528036975  0.7275947172632672  0.7742523166655195
  0.5099579922839831  0.7527057762004302  0.7431702436591157
  0.7557770334381810  0.7546193164617466  0.7513452097268799
  0.1003159178172841  0.1272347872713921  0.1354642662368509
  0.3797424434650243  0.1294071592860425  0.1240008437872013
  0.6180759555404357  0.1239289710166551  0.1346357617396424
  0.8904632123432975  0.1113414840048235  0.1095040337589254
  0.1198537314757342  0.3700218663763468  0.1308586901579716
  0.3665482974524248  0.3702957738256220  0.1240288311823725
  0.6412928576855688  0.3703244972403246  0.1176026433085324
  0.8801203647635510  0.3734790292638052  0.1331519990007565
  0.1142543049219337  0.6243826029779906  0.1181561044613085
  0.3896574115743550  0.6180723027446784  0.1295430423668769
  0.6246005432461735  0.6349727603290277  0.1190146978333327
  0.8683842829616438  0.6284670335256398  0.1274258775163492
  0.1157017349438469  0.8916315408883514  0.1333882536984219
  0.3826630964880463  0.8593929570121573  0.1481161528099565
  0.6309673513416847  0.8620468370023262  0.1265973168161147
  0.8813976950258567  0.8618930112752257  0.1236637770513876
  0.1335805724523841  0.1281066570776629  0.3643734913183359
  0.3616093390267469  0.1310556678971561  0.3788880828285893
  0.6400411485705392  0.1264026401385238  0.3687092706195262
  0.8703270008591016  0.1124938822408007  0.3814951075476897
  0.1112683390116643  0.3825847205900517  0.3620717885393544
  0.3635551150794872  0.3733250402445880  0.3859923076453917
  0.6233261026554350  0.3917991614419529  0.3735326170196518
  0.8741074934545539  0.3783206877015520  0.3692216265338081
  0.1091193994874476  0.6443478758389659  0.3742218137581262
  0.3775639976450821  0.6141181387885941  0.3708420151200303
  0.6242026895485193  0.6195922626562405  0.3727986996475204
  0.8649074513804130  0.6457298149529058  0.3566811685935477
  0.1326016960067422  0.8726199766992019  0.3686564009750435
  0.3632736073817294  0.8880791885355861  0.3735652819615871
  0.6411329244953367  0.8808091971925852  0.3538328791192243
  0.8612639971294720  0.8810847194123510  0.3567274570633937
  0.1110073495396311  0.1328176770893081  0.6367661691072080
  0.3856208832938802  0.1174694805711985  0.6177825945565356
  0.6248181637609289  0.1177547882243490  0.6160883340823755
  0.8743023485092783  0.1448093246497941  0.6105978861506409
  0.1170795914610807  0.3688673169837061  0.6366175192358485
  0.3661708986489127  0.3855118958408628  0.6247927474188880
  0.6151454835334271  0.3667714077418001  0.6393410117453947
  0.8823325853024425  0.3771116874751720  0.6124926482096962
  0.1265200414825064  0.6334968782628578  0.6276718881463849
  0.3822762760367685  0.6296159882648468  0.6349598552051468
  0.6240432049820643  0.6336287449689130  0.6321247366389292
  0.8782072455734051  0.6299567234393342  0.6207838726617091
  0.1169438404245265  0.8741617243165025  0.6345958045264087
  0.3747543577406831  0.8708107646738952  0.6145989093878862
  0.6376017082467854  0.8938246337782982  0.6219067135471686
  0.8984340401199455  0.8772634543794261  0.6030585783038043
  0.1243536419585561  0.1321629037452779  0.8810583689533895
  0.3755536702666076  0.1239466039269704  0.8653609105847476
  0.6256799043851848  0.1161524574950875  0.8735315210606461
  0.8726346777588285  0.1117468272255910  0.8752156668802047
  0.1304665895911974  0.3697050515804538  0.8776155918290857
  0.3758938290850886  0.3875309551985414  0.8786068548689442
  0.6273337975335872  0.3771238263517628  0.8775739157161990
  0.8604736932464137  0.3967965000701967  0.8731565473095426
  0.1066697230994337  0.6325253962197452  0.8818482673923445
  0.3776659102315396  0.6101560162328852  0.8886552868989237
  0.6163000313757996  0.6218472123797836  0.8766788452964864
  0.8813793159005818  0.6259079896602255  0.8723729156506328
  0.1341515182717735  0.8691604032184473  0.8878824171209566
  0.3617699716152886  0.8883598859648469  0.8612990226086025
  0.6245711246768038  0.8753230608181324  0.8751307560724848
  0.8802657121683084  0.8985774397432240  0.8696155298634728
