generated by phonopy
   1.0
    15.9923497217343744   -0.0000000000015236   -0.0000000000010772
     7.9961748610645493   13.8497811253384029    0.0000000000003944
     7.9961748610645493    4.6165937083140518   13.0576988688087816
Na Cl
  64   64
Direct
  0.9911082845625286  0.0151601962580658  0.0086276586184896
  0.2590620694497274  0.9884201858205507  0.0103212069974590
  0.4868887356436000  0.9801340806318343  0.0153871571827734
  0.7574489005617677  0.0030999185324834  0.9931613036691551
  0.0001430418441440  0.2612987760180740  0.0017672577916593
  0.2355774193956553  0.2550092294920815  0.0043325794375366
  0.5108243732171974  0.2506828283066792  0.0040857651327616
  0.7445226572349040  0.2507730040496746  0.0096180620658762
  0.9929124041771105  0.4996407106072476  0.9990631501907750
  0.2613960717991137  0.4888067012616629  0.9982920160021931
  0.4938953828677303  0.5058037416511344  0.0022971481941651
  0.7495370199135687  0.5068854626160214  0.9911359206424148
  0.0027664173369201  0.7478821300039508  0.9983060827351824
  0.2241079138111350  0.7714640023472198  0.0099419136016004
  0.5023610418360401  0.7266858064657402  0.9952021907428189
  0.7498919581560247  0.7663941790739360  0.9907377590063243
  0.9794158497115562  0.0089943707345316  0.2579984426337549
  0.2592225282900009  0.9925320674650115  0.2437616164632180
  0.4961985995749538  0.9979448327169829  0.2392967630613813
  0.7431508686480481  0.9726354276577498  0.2719511011696271
  0.0040452684295325  0.2448621884452076  0.2417678440724113
  0.2570212746109141  0.2516185514355060  0.2560361536375161
  0.4959059129410773  0.2644508862433734  0.2468923287107559
  0.7469444461206158  0.2418368559773547  0.2670581787042202
  0.0174493666483817  0.5060409750181110  0.2595269909108113
  0.2142202682022396  0.5192428585676245  0.2536592503538842
  0.4950973589107409  0.4986265047278855  0.2462918590046925
  0.7498425563115690  0.5030259916724824  0.2616306245262120
  0.0007092840040439  0.7464775642549240  0.2486535873286584
  0.2520737060675323  0.7469211245892733  0.2478078273612936
  0.4977702787964129  0.7550810737367596  0.2611624173726634
  0.7463904171771515  0.7533002914323036  0.2354787140531723
  0.0047077217085650  0.0047651815751867  0.5055388732577453
  0.2485162750802499  0.9842110442879979  0.5130677661418105
  0.5053011883442187  0.9864486728170532  0.4948813193939422
  0.7585399609636233  0.9827739119064802  0.4946273256518615
  0.0045879944431375  0.2498254058089164  0.4873664978075798
  0.2514873827439873  0.2514898207559155  0.4998119725982661
  0.5134231640220815  0.2205841501639191  0.5051453716228060
  0.7313406421922470  0.2743421602875070  0.4965490999693185
  0.0140740991057992  0.4870134467400657  0.5082494402124951
  0.2489400736954569  0.4954357547656920  0.5041068832058028
  0.4906038607712954  0.4872391742176443  0.5038594247059355
  0.7466557985165521  0.5023337836363722  0.5022322398329883
  0.0199572393481594  0.7479469071493018  0.4970779273643423
  0.2493158522324501  0.7600561593998328  0.4926715396595488
  0.5048097313890498  0.7633558901298446  0.4997201045442028
  0.7540776302730394  0.7378237870935196  0.5015370617516647
  0.9912256918500804  0.9892885097386505  0.7648357341742468
  0.2604281358752062  0.9874120460445663  0.7502927581209792
  0.4942970558474345  0.0067693744958314  0.7676139244957395
  0.7417318882871656  0.9947164555389074  0.7481222814372509
  0.9971508081306767  0.2559187302151843  0.7378038292439499
  0.2273077931810802  0.2625980487712667  0.7669346210589552
  0.4988557251454003  0.2396737448452274  0.7561138011135035
  0.7487770994393176  0.2570207827864543  0.7435186042788824
  0.9859578375037117  0.5192508330897333  0.7473465672726375
  0.2478455524376653  0.5035290823818577  0.7658625469118656
  0.4777189541933847  0.5218716138328777  0.7580056971035244
  0.7531017972676465  0.5140792680372904  0.7424011939751469
  0.0126155664265447  0.7518852492093964  0.7606038973769587
  0.2794790762220542  0.7492352332593623  0.7464371055973910
  0.5113578511369710  0.7541551041295907  0.7507052989054205
  0.7643171442237384  0.7593159753392202  0.7379821280659320
  0.1303417429791638  0.1271935745869747  0.1161574221513302
  0.3856400009978926  0.1341175890413323  0.1255765774644981
  0.6300807695839897  0.1274987627019895  0.1207668454271930
  0.8763618037905941  0.1257283111316553  0.1307858761422186
  0.1122013955187680  0.3677893706967103  0.1337800344366490
  0.3807479945813397  0.3740727836786823  0.1316247431080065
  0.6295092708821183  0.3619341023928570  0.1375733506898925
  0.8856466737934532  0.3946753390230375  0.0966285207660331
  0.1216736082365804  0.6345933682858617  0.1353050912790223
  0.3678037301912195  0.6340596553814702  0.1189796916216869
  0.6377562093794852  0.6266972708186442  0.1063247387027830
  0.8962287046020444  0.6167720873780521  0.1176233516986038
  0.1244273824644969  0.8644585158437096  0.1311303904208886
  0.3785440436972252  0.8824207419417799  0.1215846878965498
  0.6269554767995591  0.8591019474372913  0.1427738982783058
  0.8784133759532581  0.8661610971653279  0.1255526633978988
  0.1144751306775088  0.1365636611502281  0.3711501112643343
  0.3654901073000439  0.1400004533028503  0.3794437304787847
  0.6188682470130819  0.1216649147515751  0.3743378515383671
  0.8841059202627112  0.1039618867032866  0.3788642972515248
  0.1281255480948054  0.3701815909909978  0.3696248082127679
  0.3615885477972750  0.3848372232244348  0.3778245849209093
  0.6201729243229264  0.3763983608339096  0.3717632631689473
  0.8619048895902744  0.3733513164218311  0.3796260063067666
  0.1224500587443726  0.6137973701805142  0.3602139059359502
  0.3865137049271188  0.6195433204994114  0.3606240168488955
  0.6255476841232120  0.6260742586508671  0.3682386949506382
  0.8664068580989915  0.6127787503831091  0.3814199666696015
  0.1294012059106599  0.8842339506848302  0.3776810295542964
  0.3822642776741990  0.8808040516966849  0.3553247527821138
  0.6068706481044110  0.8841022954190492  0.3686781820726130
  0.8705530429744586  0.8695155932461207  0.3867279442024717
  0.1164295827338336  0.1290638539091485  0.6157336718766274
  0.3640091697299647  0.1294449556140368  0.6202305681356364
  0.6342378422862430  0.1294941316908074  0.6309679767993485
  0.8792449379580254  0.1179134698867188  0.6155354075715805
  0.1451953317023967  0.3722441735104121  0.6190988511661982
  0.3808850419503466  0.3590241828472536  0.6298094241688267
  0.6233657096812146  0.3852833518947412  0.6208907691053602
  0.8966438210881377  0.3812610729400815  0.6039805293184884
  0.1145254551512530  0.6232710310680896  0.6316709574012686
  0.3739427459984744  0.6215530851661368  0.6247276106972570
  0.6233270467031962  0.6284405857936228  0.6197849103778789
  0.8850482633330106  0.6193875512425563  0.6104355512703973
  0.1222929640531261  0.8813731225414373  0.6207491911152591
  0.3730735876869338  0.8863633353515988  0.6266417012301450
  0.6101051919088321  0.8965993179759730  0.6321010440678831
  0.8743641924446817  0.8781804709914365  0.6305727331558958
  0.1006276190658298  0.1311899367428498  0.8945947119904804
  0.3933174302431732  0.1074684486569991  0.8848974658521839
  0.6302860608330785  0.1179478523450944  0.8857767094141893
  0.8729103371308170  0.1372780319905402  0.8772483501308267
  0.1265675342097191  0.3614535947094393  0.8621259602681561
  0.3554912111205160  0.3845975347247068  0.8761982168462529
  0.6218725117643056  0.3802942875156788  0.8674647855593369
  0.8741196392347372  0.3843827680701746  0.8703967858746825
  0.1294290531700594  0.6331179218180494  0.8649662535068868
  0.3686350273297880  0.6270927559088550  0.8727504714600409
  0.6374820529374992  0.6244014088450534  0.8667288465900381
  0.8762744871430839  0.6256671295925744  0.8648355155684365
  0.1296493847772028  0.8612925178711929  0.8821213690220839
  0.3871979049258001  0.8667293028278904  0.8786914161730131
  0.6127870233513666  0.8759444743057349  0.8919796371151175
  0.8876783617760056  0.8718846366900117  0.8734185380004582
