generated by phonopy
   1.0
    15.9923497217343744   -0.0000000000015236   -0.0000000000010772
     7.9961748610645493   13.8497811253384029    0.0000000000003944
     7.9961748610645493    4.6165937083140518   13.0576988688087816
Na Cl
  64   64
Direct
  0.0021549646687223  0.0138424985885183  0.9951481348436044
  0.2420853096694741  0.0117274711552073  0.9989860060456933
  0.4962820702689651  0.0142420119036718  0.9844323278271947
  0.7659154010252157  0.9955176654563196  0.9889134070711628
  0.0185033999076283  0.2391411947627524  0.0047578697322122
  0.2565597650667509  0.2310701697456245  0.0241155533062124
  0.4896652127623782  0.2535372330838757  0.0094780183898544
  0.7310003093524884  0.2675800352801811  0.0064118135220032
  0.0063224261562338  0.4944778030492612  0.0047736602148612
  0.2590327549153066  0.4989992667156475  0.9870358756616373
  0.5039645690326623  0.4918905312204643  0.9941391535858339
  0.7439884583200841  0.4899477461674452  0.0005299294165354
  0.0069601519615389  0.7542510574643018  0.9900846564502542
  0.2582072795440346  0.7371081735602891  0.0048594288854566
  0.4816522173890132  0.7748405557472758  0.9999331774283035
  0.7544091768225185  0.7518641498027175  0.9958433631367700
  0.9990442753214154  0.9967077747944556  0.2600055833564996
  0.2337397397562789  0.0246866266307272  0.2403053420538380
  0.5047449160630696  0.0156337019332640  0.2428634681432724
  0.7677440444947075  0.0027773657480226  0.2582517031688507
  0.0215419465725531  0.2577705898657232  0.2399938015484561
  0.2702015402217386  0.2392352284636010  0.2579070702076495
  0.5019959534836058  0.2602887767220362  0.2469380557209317
  0.7590829536816505  0.2408611892569056  0.2530795292644271
  0.9964315410658143  0.5017977911356997  0.2412394488986311
  0.2400554613785253  0.4945798194388938  0.2587621093801898
  0.4868344448294297  0.4919353484917499  0.2633736555327851
  0.7402106089238324  0.4938351550346876  0.2498716585624999
  0.9766120731578944  0.7419998230537403  0.2777508928387236
  0.2682489262275896  0.7501023424335670  0.2484289556735309
  0.5042385658512694  0.7673669263831278  0.2403724878375108
  0.7593372753862134  0.7420965757781052  0.2524255151922747
  0.9914926425918741  0.0020207732825301  0.5183589255610668
  0.2479465630587007  0.9872564611810924  0.5021352107292263
  0.4988813522165009  0.9770036713525940  0.5287670800661939
  0.7699878052554266  0.9843261533442969  0.5078153617045624
  0.9975237112735871  0.2465799195705557  0.4890689462352700
  0.2535418256743001  0.2342693705058237  0.5060465263766974
  0.4883561478707122  0.2287848238225097  0.5344653639350649
  0.7516396313697209  0.2437991990348632  0.5037831446467176
  0.9952702706442162  0.4952083099977528  0.4997794214710236
  0.2478673682496915  0.4862550848016011  0.5033018233586750
  0.5115087583322038  0.4903644045650983  0.5062593886331853
  0.7469914028295916  0.4997017396313467  0.4892313861039089
  0.9962248979434593  0.7642083085185707  0.4882804754102318
  0.2398465015243952  0.7715433001415424  0.4965639255858078
  0.4945106703961719  0.7579914845975934  0.4963935950405572
  0.7422807557571671  0.7519469962423899  0.5223191973250556
  0.9991538893509488  0.9997712415831780  0.7342341633752388
  0.2426826483812637  0.9950729942058032  0.7525605379695418
  0.5061204433666524  0.9928787364158200  0.7513316446843528
  0.7521723025168248  0.9918736697910185  0.7678086403071992
  0.0028667268321504  0.2703280483278403  0.7438144513017638
  0.2464522865009649  0.2428117914249659  0.7507409556599582
  0.5097193919026994  0.2469741965446856  0.7508561113094556
  0.7601166114190465  0.2685729547562455  0.7221009114788353
  0.0145508050668667  0.5022195539263775  0.7442740414187818
  0.2511297959819269  0.5148200799893587  0.7481947874775395
  0.4850956122310327  0.5002688725424829  0.7639982497458387
  0.7554939529440665  0.5105994480392644  0.7421640103584314
  0.0127863516096491  0.7495536436225957  0.7166093360630482
  0.2575474102163818  0.7497878424917335  0.7313178311511831
  0.4952709182851753  0.7745342084623997  0.7351078231523485
  0.7507432381636244  0.7435426356368962  0.7547958287424290
  0.1290994127493132  0.1293239186029741  0.1192527487454755
  0.3676951614208285  0.1125994292718844  0.1391107973039010
  0.6348972824423988  0.1335198616490350  0.1184890511872310
  0.8833906489114257  0.1321255664127983  0.1164954785026085
  0.1383809457302870  0.3708340377952108  0.1178657978585538
  0.3560361843300620  0.3853295234714911  0.1294343325910740
  0.6284372492165001  0.3592520498133728  0.1125968218021807
  0.8843423951039132  0.3817287348533980  0.1097619331833693
  0.1271608060355085  0.6237637156777025  0.1359813580406355
  0.3783537787496289  0.6182600910790342  0.1326116111853518
  0.6197539592278636  0.6458541056178593  0.1112155933533026
  0.8670174098170218  0.6273505984708450  0.1309646251589955
  0.1566068178728648  0.8718783134171114  0.1224613458340695
  0.3696627109173841  0.8691321434616314  0.1314272348335099
  0.6284618701416801  0.8820715818740341  0.1280918585536184
  0.8705978977255088  0.8873895396445574  0.1256889162226105
  0.1268067440325115  0.1151393501320259  0.3821587055195981
  0.3732070195976378  0.1233369051324773  0.3829433996154069
  0.6297859523346353  0.1263358219022803  0.3772060903052959
  0.8819905414217684  0.1263495960750042  0.3685706414338740
  0.1290952480249082  0.3695044199745795  0.3851934064516758
  0.3762818977910187  0.3666158912800968  0.3851262618091830
  0.6292817523213249  0.3786327522126304  0.3692412650693240
  0.8637747284460432  0.3716759213446809  0.3929406529416893
  0.1168404348807378  0.6178489613033671  0.3880315793813240
  0.3848493918254871  0.6132766893172501  0.3803369474824670
  0.6292015046501934  0.6185737581458211  0.3778422052827931
  0.8639480311589983  0.6135589306147093  0.3851659337278674
  0.1269264254519899  0.8801832757447439  0.3674868878985705
  0.3697258758317735  0.8715941168523313  0.3712852609976778
  0.6304197137544549  0.8723038065029072  0.3785682933166409
  0.8666325057169800  0.8752962661213018  0.3843782394745898
  0.1165975558175872  0.1351099568791698  0.6209610040583977
  0.3752722352803870  0.1220749466828186  0.6312141557531664
  0.6153671662226343  0.1259943765345861  0.6387083094612823
  0.8621348911308779  0.1271329457665135  0.6345489774204556
  0.1477634216703426  0.3720860898661303  0.6168532281659568
  0.3889942714622219  0.3674342084960279  0.6227619421552927
  0.6336553285038020  0.3607646365236008  0.6292324476129182
  0.8775321256970670  0.3796561089882493  0.6214867283046186
  0.1409662038784602  0.6202016192558388  0.6117551709321932
  0.3550336515949672  0.6276464068440626  0.6292003305791590
  0.6103896770539621  0.6423678426658704  0.6224942699660982
  0.8792515502960747  0.6286534293780830  0.6051737840366661
  0.1205580631836385  0.8777933730604386  0.6253780433064680
  0.3832154799134817  0.8749666116024235  0.6424150776192253
  0.6249333161014565  0.8754914401766218  0.6255032962075980
  0.8755411392877691  0.8957525118811329  0.6068110415189290
  0.1041805966797149  0.1316531615457802  0.8776783121237234
  0.3814720723593396  0.1141609686612642  0.8858798399698058
  0.6167947040138402  0.1370679633282011  0.8884288611690273
  0.8660291273767935  0.1205376848803937  0.8832751212865377
  0.1256094486588552  0.3859991481776306  0.8578816435461522
  0.3937898799028364  0.3573308927560521  0.8734500054185294
  0.6246966988676594  0.3744299267250988  0.8684122538889961
  0.8567254051622459  0.3758768757166154  0.8748600756751683
  0.1436177045589715  0.6313777249964634  0.8643147936768251
  0.3715567479747026  0.6209613151700171  0.8802471515940291
  0.6128553221525342  0.6331971698787495  0.8808287136892089
  0.8611460749699507  0.6196691467251185  0.8935679563117723
  0.1363089715363499  0.8835130538830099  0.8688361781933727
  0.3764534627981516  0.8700440205090954  0.8786719128671124
  0.6206063271332005  0.8731885951278169  0.8747142727491894
  0.8778985487744662  0.8796550588073470  0.8667760987848666
