generated by phonopy
   1.0
    15.9923497217343744   -0.0000000000015236   -0.0000000000010772
     7.9961748610645493   13.8497811253384029    0.0000000000003944
     7.9961748610645493    4.6165937083140518   13.0576988688087816
Na Cl
  64   64
Direct
  0.0096598552462559  0.9929642199002365  0.9925746182544795
  0.2399179154813048  0.0103397686197931  0.0084429806104126
  0.5036058415178162  0.0091020516861473  0.9933436576678426
  0.7438392478783279  0.9839524193075196  0.0116455602663961
  0.9907152960786217  0.2484612005474748  0.0066625412120986
  0.2401213943032698  0.2430253767105917  0.0113539527204992
  0.5082361790796062  0.2498026226942693  0.9970350598614222
  0.7352193425404658  0.2584641840643548  0.0112978227299200
  0.0168662336453487  0.4944554943057829  0.9971407004384738
  0.2741842943653618  0.4907397433219814  0.9914922906213294
  0.5161635838798477  0.5115587220042755  0.9895271053148341
  0.7611441279552742  0.5085218567214662  0.9969598302567299
  0.0061323627530909  0.7443902389030830  0.9990253296197372
  0.2301754941118380  0.7636716710173500  0.9938650939370017
  0.4985435117557931  0.7578556484175535  0.0086946840078621
  0.7620178240411857  0.7545092434614867  0.9873490240870961
  0.0041936572893477  0.0001832877381138  0.2379948373674618
  0.2655747842678984  0.9985840680595292  0.2397373628320973
  0.4893766998749169  0.0056603377999661  0.2532213103842446
  0.7578089376811803  0.0111827632595844  0.2275885407004334
  0.0099354674903023  0.2390393270672347  0.2459802979581012
  0.2650225279559546  0.2502101799788097  0.2407517236038682
  0.5015811251191076  0.2436662727653006  0.2479237483847392
  0.7304377501198777  0.2688244851705078  0.2690646894965985
  0.0078997420767708  0.5124680244420775  0.2433664823728718
  0.2356734925941785  0.5148062351981928  0.2529996582027286
  0.5029065462900095  0.4967390343410821  0.2710843808971052
  0.7284823692340429  0.5021993854998297  0.2586446376382267
  0.0028806668564494  0.7414465257649148  0.2470632007450609
  0.2370203811224683  0.7583615159960204  0.2417791006541007
  0.5008229668040993  0.7486866337710639  0.2496791482651236
  0.7676384636912789  0.7576359138023752  0.2397340168976367
  0.9883833966798743  0.0022212894897271  0.5181549456650408
  0.2662604523576363  0.0118831606353502  0.4998220276263070
  0.4931409280090420  0.0115505135316520  0.4980523825611902
  0.7374209565295905  0.0216537190669818  0.4908681660030975
  0.0081473460894485  0.2259840093338731  0.5094856426013612
  0.2427132663144450  0.2486502386706775  0.4955989179179197
  0.4944859927962034  0.2518742595995639  0.5104421867211832
  0.7471951755077181  0.2425869217987312  0.5156157294688488
  0.9979591808945310  0.4929042539921931  0.5275570454638712
  0.2586491034391685  0.4936163565161962  0.4948494131928570
  0.5058602415527328  0.4922449516557655  0.5000150202943564
  0.7432260423690438  0.4852878190063337  0.5207577460277667
  0.9866040391502852  0.7487899722650665  0.5107291884718940
  0.2397171605801129  0.7250910645219624  0.5236850050330166
  0.5013242509058086  0.7509970022443002  0.4878518717046783
  0.7445783398507466  0.7539246210974038  0.4939546724309939
  0.0051172268884821  0.0141418528995722  0.7346919287483255
  0.2621638645161126  0.9934638034227723  0.7532580628838211
  0.5069409124373095  0.0056165830281351  0.7496981653221280
  0.7464787569369908  0.9808053342801524  0.7581725333611529
  0.9854155312470390  0.2442793019663803  0.7587953918421749
  0.2465029848970692  0.2314249301862199  0.7667444790896948
  0.5064987351314922  0.2463685651764033  0.7406519292826972
  0.7407909468017564  0.2578712770122475  0.7562025887710057
  0.0074174167758204  0.5110463686702271  0.7165435790932368
  0.2643878812428839  0.4868801205182401  0.7366724743132926
  0.4765473294811429  0.5134332118171852  0.7601388820988115
  0.7345366513119482  0.4958245531614793  0.7715108232111615
  0.0057772623587233  0.7537167828218119  0.7452513181787127
  0.2666433959340545  0.7619903024404355  0.7430804026941408
  0.4902896979942681  0.7722421136676088  0.7362137229622445
  0.7536694351205069  0.7543352515718622  0.7584019957662179
  0.1269832878466038  0.1225876747493900  0.1187858408232993
  0.3771379357660596  0.1122854005136206  0.1261993520332624
  0.6441579971009376  0.1075809806422564  0.1199565635486577
  0.8838690826148868  0.1379330003270079  0.1147667892529692
  0.1121352954219136  0.3770349049943580  0.1311106742852547
  0.3738386442870262  0.3760803763294736  0.1254304245266842
  0.6057905496382061  0.3819464025936617  0.1275350945458543
  0.8696734413402941  0.3798618297710022  0.1260223363235107
  0.1143633252701840  0.6233751871962772  0.1418195811677230
  0.3571625656509028  0.6231371248160245  0.1458860007624686
  0.6275743754269713  0.6273442477976753  0.1199275496636995
  0.8858633239884621  0.6125067978114149  0.1202646297370351
  0.1146992854205711  0.8888012373991687  0.1129136345508136
  0.3753135142874420  0.8653607302199361  0.1196476095236439
  0.6217959635745421  0.8719227023353652  0.1354316627758919
  0.8762889591360324  0.8623323627325190  0.1313945834430657
  0.1255228316550593  0.1117999478644804  0.3869223108134041
  0.3804286432431821  0.1318438847342332  0.3556555552342109
  0.6372400884125435  0.1168852462561452  0.3714240285511868
  0.8676439072366240  0.1339944515719564  0.3815450266759542
  0.1279114806142315  0.3565418315708379  0.3858463851899133
  0.3766620840557978  0.3733174539826535  0.3659105253964283
  0.6212333847513625  0.3749650108590784  0.3698568371275873
  0.8719147413741466  0.3835323446672085  0.3776222648685655
  0.1235501474392271  0.6260254497953657  0.3894429999816406
  0.3704339506694228  0.6498433680596587  0.3668762691242502
  0.6094770325031749  0.6411982547325046  0.3819883664155081
  0.8904729836541420  0.6068005186590153  0.3699120239343915
  0.1035054427622084  0.8807870818199577  0.3858567687702845
  0.3723319561149000  0.8780664158073201  0.3773130998682354
  0.6220473434121033  0.8673320819801933  0.3693347600868713
  0.8903246196448624  0.8703889149581640  0.3592763778389387
  0.1182957618285391  0.1308718372073625  0.6154117534967591
  0.3808043049386453  0.1156988471143553  0.6293196792739556
  0.6233888136854686  0.1363526040008840  0.6244283021421297
  0.8754971352957275  0.1182007481135155  0.6303337476188142
  0.1194507051066641  0.3903108876462928  0.6282971533722154
  0.3894439982341653  0.3498042412410803  0.6402027929987019
  0.6457958505895740  0.3703463902716813  0.6157053415574112
  0.8560972623172638  0.3797401594721361  0.6471909197667876
  0.1358888959230108  0.6220698118117445  0.6210284559631207
  0.3709713740030743  0.6275996092321759  0.6214922242187932
  0.6420198540108455  0.6058260931990214  0.6311398798881505
  0.8760763043953497  0.6163799783636450  0.6363159617572922
  0.1149841788966437  0.8732970575192898  0.6277462224967845
  0.3640592392729999  0.8901782097658608  0.6165048966462296
  0.6161725926535857  0.8665038579563681  0.6369294968124817
  0.8668179486548692  0.8827928719373109  0.6146288550448357
  0.1238334436434050  0.1183321996289052  0.8940514221589343
  0.3882144499041613  0.1311588341783743  0.8571101557349772
  0.6276380128308865  0.1235880936549196  0.8660843022998213
  0.8836928580677124  0.1148298804391197  0.8651982116686598
  0.1242388350623852  0.3647277756107828  0.8735275919841290
  0.3820813665830451  0.3703522935740161  0.8739072054804673
  0.5978443599892465  0.3908713837248808  0.8874317293350165
  0.8658130713251213  0.3799224211131754  0.8867798906337955
  0.1397918457346999  0.6288960205788543  0.8706859113580113
  0.3836792807434895  0.6353918912219745  0.8684792068135528
  0.6183848637828969  0.6282491004012694  0.8791630191875660
  0.8644967836841353  0.6207673966382619  0.8850257434104482
  0.1272093648405646  0.8578641513101699  0.9062128349095959
  0.3782710964984948  0.8707091456403115  0.8628945745926434
  0.6211512447088896  0.8651621916787049  0.8873739982714367
  0.8715658796684947  0.8641305966739236  0.8743151501519071
