generated by phonopy
   1.0
    15.9923497217343744   -0.0000000000015236   -0.0000000000010772
     7.9961748610645493   13.8497811253384029    0.0000000000003944
     7.9961748610645493    4.6165937083140518   13.0576988688087816
Na Cl
  64   64
Direct
  0.0005363118354901  0.9978009610523835  0.9939254365868799
  0.2354501230624053  0.0064252786874449  0.9902822320542615
  0.4832403974350321  0.0249418427044335  0.9916643403515234
  0.7519066878616021  0.0078966369990790  0.9991011275311686
  0.0038415093919375  0.2678812398878981  0.9816666288421978
  0.2678191561102715  0.2418695715018907  0.9919053703093410
  0.4796914536811407  0.2612891616314786  0.9929690020201603
  0.7668643073600632  0.2366585100722932  0.9861741252201449
  0.0147843534938083  0.5042413186570134  0.9845515957836335
  0.2551008994000783  0.4835903537667802  0.0079550544682883
  0.5181433757516107  0.4900276330992445  0.0051933273539910
  0.7464687471927703  0.5083487777074204  0.9955940045752116
  0.9913566728800854  0.7670880426471006  0.9985763863386371
  0.2429949956555415  0.7499115207355936  0.9853865890200447
  0.4908969213221576  0.7568840383987107  0.0009708109156153
  0.7628695803805446  0.7439735363968042  0.9896080958723372
  0.9917149073287062  0.9970164333417106  0.2496567593831779
  0.2564664356971186  0.9880047377438642  0.2568894142838465
  0.5248510380028816  0.0138311556164906  0.2317860303164852
  0.7493758280510736  0.9980481679826969  0.2394466294286952
  0.0039148044230053  0.2471351000799318  0.2409529658134091
  0.2439589618685757  0.2552524784773961  0.2638145702686809
  0.5074384899336741  0.2355020742698929  0.2673389484808231
  0.7393741551746364  0.2559765185038615  0.2377780648638963
  0.9785610533105580  0.5061456774594788  0.2564667874990726
  0.2485335137971486  0.4952347528988755  0.2454829205781831
  0.5145613106232653  0.5049239947584857  0.2368570644506484
  0.7475119183914709  0.5116506258546916  0.2628729715890555
  0.9882859566804643  0.7644256964094868  0.2577806927110696
  0.2647254530884706  0.7347965506331920  0.2515972912822534
  0.5102876707682313  0.7525242247241751  0.2390680298691823
  0.7460000689307593  0.7572992149829291  0.2387901472734064
  0.0003981715318467  0.0171086710880773  0.4751567424663253
  0.2555543536025147  0.0117781370765812  0.5005229680869139
  0.4865952692035801  0.9997444761987173  0.5060006122132970
  0.7433165307966448  0.0035892854871255  0.4976119883451979
  0.0194750732796809  0.2297553707328474  0.4962962676613474
  0.2345675292693155  0.2536910267779283  0.5065577890422701
  0.4846488131439318  0.2609271210786325  0.4993087149054304
  0.7532050334851945  0.2481522571059637  0.4942572153169212
  0.9881304903069981  0.5054348072958460  0.4983843501562218
  0.2495951936091450  0.5001732493688468  0.5005762554026144
  0.4939092578322622  0.5154318955010126  0.4901455166244392
  0.7440788561960665  0.5124084290326983  0.5077444426151949
  0.0038381508576077  0.7508586363704361  0.4903336706612919
  0.2541291230053574  0.7386037601561970  0.5062211100930724
  0.5024736838077757  0.7650887596680528  0.4850375391286491
  0.7395801538565943  0.7584092012613980  0.5006782435675353
  0.9924501589549690  0.0189574396753658  0.7386447965481999
  0.2323982594388071  0.0224103545581973  0.7554299261168791
  0.4774258285169670  0.0103606825156149  0.7442118397896269
  0.7382989105788730  0.9845572483260877  0.7539184421626351
  0.0054246766722865  0.2396040082009283  0.7463630240179587
  0.2467081991035708  0.2508117349835233  0.7452190639182780
  0.5083560973621827  0.2543959663311258  0.7359186599287832
  0.7518659935959253  0.2580464519450827  0.7561046522879337
  0.9933765529123112  0.4870221256348599  0.7601907429417737
  0.2705916574920882  0.5066673669428917  0.7305606845263535
  0.5001449732747714  0.4965269227566536  0.7442803977813133
  0.7672159526468247  0.4909499208995693  0.7393147217825993
  0.9937687045459914  0.7532847442890517  0.7539724067675931
  0.2619807289350806  0.7339088476829043  0.7598837192196759
  0.5059389446562381  0.7306342182304237  0.7774014891820904
  0.7355862644938851  0.7360423686856317  0.7609040420769116
  0.1295934499337697  0.1230333232891582  0.1135237825891301
  0.3642264763087969  0.1277752404912510  0.1228257086250385
  0.6268486059581084  0.1307446283601713  0.1062735146372534
  0.8751206805820686  0.1207210059241975  0.1240507038594951
  0.1145079162604919  0.3954830159648268  0.1137011034213979
  0.3750297743885865  0.3892485248531855  0.1143307405008859
  0.6190198042706062  0.3696040780460841  0.1358067007182666
  0.8526951081402491  0.3790946378535004  0.1321974930251819
  0.1164724704793811  0.6354848777769180  0.1184751972839720
  0.3717546754296477  0.6287062827553295  0.1303523653704358
  0.6110673592851749  0.6233803357788096  0.1293819168502186
  0.8709974154237130  0.6340083997852521  0.1189491770874078
  0.1157018733776430  0.8785873948470243  0.1326340593015759
  0.3756620167369245  0.8942051075279639  0.1239596794214101
  0.6296410152887978  0.8567431600755764  0.1138614378162740
  0.8796085935458752  0.8744104150044367  0.1253007339401825
  0.1322994456458993  0.1126753202740206  0.3712257374284508
  0.3782659052723650  0.1229675257988931  0.3746466729370768
  0.6390258108404963  0.1138330823030194  0.3660575428123855
  0.8627453822001994  0.1334874514529313  0.3739460026860663
  0.1314406603149645  0.3793664801475173  0.3787911146352144
  0.3671743666515086  0.3664449346390897  0.3916745225841350
  0.6319870286270342  0.3768849233228985  0.3624063215029650
  0.8765652088169227  0.3633361935740222  0.3823525066767354
  0.1365685915172241  0.6176375153944864  0.3634448427288399
  0.3801851090192430  0.6285333274821925  0.3631353871560115
  0.6327484874497930  0.6222858024841746  0.3709244435620559
  0.8834447945356749  0.6260263072444230  0.3717129820019013
  0.1074146195243116  0.9090149524592942  0.3730335833622338
  0.3697905940086048  0.8966688936967183  0.3695342260525553
  0.6274585893951543  0.8664602692153686  0.4001500176436115
  0.8733921708900587  0.8826055293265500  0.3586530024041925
  0.1132945343851219  0.1323063915760851  0.6270152743276617
  0.3602386551167864  0.1326440986275715  0.6306311477852142
  0.6106921044741044  0.1261748230510162  0.6420131021656137
  0.8795784478903041  0.1232367484638250  0.6229792832508902
  0.1313375701012486  0.3718297807985007  0.6208105066195453
  0.3701038196731546  0.3642639493368167  0.6284931207708577
  0.6357023533378233  0.3679424621250579  0.6288758782131170
  0.8749067389274878  0.3704484188863446  0.6227131807523024
  0.1250742419165377  0.6189874852035822  0.6217492509272162
  0.3803414872557955  0.6269455401615880  0.6130471797876190
  0.6177357603449082  0.6330125248274030  0.6225610919404578
  0.8735370654362782  0.6304015388235875  0.6140918439757032
  0.1311194308958309  0.8724926263649144  0.6157709912564704
  0.3634483556731666  0.8696114964937367  0.6306596070575695
  0.6223361918679763  0.8731610262983981  0.6179649673846624
  0.8779424697128431  0.8836898124724879  0.6183449209521017
  0.1271943707846400  0.1465728724875031  0.8664248487019148
  0.3509887970906512  0.1246400047345022  0.8842510483179608
  0.6351217997231489  0.1228881653912506  0.8611565408053752
  0.8870239373826201  0.1219733435080583  0.8557245987972169
  0.1204849710224781  0.3909175099437839  0.8737728831013126
  0.3773031594911867  0.3674154446611790  0.8682800837719147
  0.6340379998913935  0.3652116602941767  0.8760660467291739
  0.8717748780138930  0.3800325230778286  0.8855203460155904
  0.1299565447884412  0.6325043833336457  0.8619861716454605
  0.3890054097692525  0.6121250416537041  0.8610595064236640
  0.6320466244993730  0.6209420558288576  0.8736511143955157
  0.8759129985214693  0.6281015325345429  0.8795146989241073
  0.1281023273623214  0.8718244985218581  0.8864089837564789
  0.3831510587123583  0.8725338874608872  0.8718948355939519
  0.6386210368410294  0.8766453151707332  0.8772820745140688
  0.8713188404858039  0.8836858206124811  0.8734674908360872
