generated by phonopy
   1.0
    15.9923497217343744   -0.0000000000015236   -0.0000000000010772
     7.9961748610645493   13.8497811253384029    0.0000000000003944
     7.9961748610645493    4.6165937083140518   13.0576988688087816
Na Cl
  64   64
Direct
  0.9964413550574940  0.9966252987218001  0.9847200553672369
  0.2549510558698532  0.9885242612674425  0.0244112964818781
  0.4910998688316504  0.0033138343118455  0.9985211575935367
  0.7633010953980978  0.0035663421678477  0.9933139088641313
  0.0206699821814301  0.2412306592914195  0.9962174510483012
  0.2621412258200792  0.2376239538006713  0.0034778777684467
  0.5052053772679712  0.2418005959856187  0.0010635653085176
  0.7487938995936816  0.2511409994412639  0.0107449618368721
  0.9993809709136088  0.5091141973980079  0.0071815564717248
  0.2595095466940566  0.5188174521668810  0.9876680678390968
  0.4893091748627858  0.4954810490605549  0.0134619872896006
  0.7495532295535985  0.4751947743559506  0.0114880126286692
  0.9916963132931498  0.7694974643987136  0.9983533322197121
  0.2597381481135337  0.7607047782718070  0.9872123839750336
  0.5089865765527229  0.7587017543284718  0.9754402499294119
  0.7603368774538950  0.7398367382097525  0.9948520698556894
  0.9892862020633518  0.0054719482053738  0.2500987772728516
  0.2424046523213562  0.0145245372110715  0.2406141517198097
  0.5057012162367860  0.9895574493276978  0.2463874186988861
  0.7503498363337173  0.0124865184101606  0.2363887454616357
  0.0046215448897423  0.2576723956834982  0.2406382419914554
  0.2341492906576015  0.2473640139794274  0.2722194606333835
  0.5036770140703137  0.2534787484651794  0.2457712061543610
  0.7569065988559646  0.2418631300637294  0.2460370379084231
  0.9904493426757144  0.4837669693967622  0.2491408013755921
  0.2613290210915166  0.4915375741109869  0.2372104028896921
  0.4856802748872948  0.5038170793951154  0.2649437375607444
  0.7356699770346794  0.4918887902654418  0.2545666370818890
  0.9907373745120314  0.7544227309826402  0.2490222969386890
  0.2522284647045469  0.7447199254521779  0.2596553888633768
  0.4943702824091124  0.7554946025088279  0.2578980029763180
  0.7381584572058622  0.7589201629987883  0.2523659531082801
  0.9993015270859837  0.9956162106776896  0.4968852690971632
  0.2464934009143153  0.9771151798577857  0.5069975700176331
  0.4924456014171846  0.0018390419760756  0.4971997167539934
  0.7648511181172826  0.9894381651678057  0.4953101504792521
  0.0140583721805830  0.2496036816546296  0.4680659518845020
  0.2480815947627424  0.2463577387930426  0.4933080586141262
  0.5148558413545467  0.2520150942110654  0.4847387113483300
  0.7472601061739914  0.2607858292545505  0.4979470533831390
  0.9800666728796525  0.5069899794941358  0.5130917719662664
  0.2448987065569267  0.5044222511922580  0.4958278160103686
  0.4922919133049747  0.4977128254844984  0.5105494780124895
  0.7397209614046100  0.5059898528230934  0.4955429511158224
  0.9871737154422450  0.7398560689714895  0.5171975816086857
  0.2687898294673280  0.7464152990594447  0.4984272992533846
  0.5186499244908473  0.7347401851278358  0.5124128439771130
  0.7462042160531764  0.7366595626698590  0.5119086931340321
  0.9968522536220213  0.9948592594748042  0.7592345617166149
  0.2409463284171255  0.0006736087297231  0.7598976062170987
  0.4993171401345520  0.9987195899643352  0.7738843391926206
  0.7430740658114290  0.0066045636245030  0.7442001027719179
  0.9980719220509757  0.2662651952227462  0.7498965376824854
  0.2545000042637511  0.2357632402807303  0.7434683878736990
  0.5089989053230988  0.2675023836724659  0.7515241922572450
  0.7613154053295490  0.2434922953589652  0.7492457629516197
  0.0103857236707041  0.4914683442827503  0.7443119981466439
  0.2317064212700792  0.5131060583230744  0.7699228235443998
  0.5034283619792808  0.4830366685632575  0.7683423453831087
  0.7531266057293279  0.4921263520380668  0.7340212138186203
  0.9976792790482827  0.7623570693801107  0.7450242570978584
  0.2537600672883438  0.7651351239483442  0.7263732749372761
  0.5091089566628022  0.7540044175896252  0.7558176476842776
  0.7466393060215403  0.7668633887115019  0.7509749551042216
  0.1415323775574448  0.1190732794812778  0.1200083393738418
  0.3810263456240494  0.1265013035671392  0.1060842137163189
  0.6237001940678693  0.1303033232265708  0.1225194223893468
  0.8660414760171531  0.1354613531444382  0.1185367883827907
  0.1253263377445847  0.3717063793964461  0.1142512289103212
  0.3622725465003818  0.3699562328792628  0.1313696989113978
  0.6163340274596404  0.3710565942067273  0.1274598689352869
  0.8895534529225387  0.3512802018159911  0.1129777368122482
  0.1313629994059322  0.6196481981071825  0.1251215186540434
  0.3840522300456605  0.6244066596939010  0.1235556462808733
  0.6405722460719626  0.6167156101792035  0.1129116409125140
  0.8874519533031088  0.6301795264351178  0.1043212554561473
  0.1172074414896134  0.8845796148304571  0.1288019067573799
  0.3870527412908015  0.8815387242313627  0.1044460524209271
  0.6319229580400355  0.8717917722585841  0.1244936050300062
  0.8589798221747406  0.8902359657346928  0.1381765135764882
  0.1285892081014942  0.1155483106537146  0.3718612179108722
  0.3604172694383492  0.1318081622436919  0.3917528507729136
  0.6120325551070270  0.1362491789082664  0.3892114960087877
  0.8806086247984990  0.1163807962998468  0.3744330708761647
  0.1219266117767674  0.3808456498372283  0.3680807410534735
  0.3821048891677040  0.3666920106724983  0.3802982992006200
  0.6150446515673021  0.3694784104710850  0.3717421721988871
  0.8662963335474814  0.3903722179355403  0.3777034397263457
  0.1243359875256955  0.6227863009153927  0.3814327341712201
  0.3780300801566491  0.6313113726172042  0.3666402015798078
  0.6244924055121462  0.6257007513491375  0.3815503137545211
  0.8841860786956857  0.6119421406555626  0.3787394586337406
  0.1271463629346121  0.8749003620575755  0.3889895688033296
  0.3823205728836796  0.8706401872739367  0.3746455732692414
  0.6296238223690749  0.8772645458130617  0.3661450289561591
  0.8896054865090597  0.8582572505788497  0.3694448364235581
  0.1142746105120273  0.1239217024848462  0.6471430268004039
  0.3814561302157917  0.1104094387154446  0.6305217943849164
  0.6284886909810976  0.1260185043525016  0.6201041007712785
  0.8756906333290286  0.1223951587422029  0.6284355631663606
  0.1269513463441964  0.3822316601858056  0.6176914007248120
  0.3796276965951890  0.3585936603197271  0.6325533808563106
  0.6372933075076772  0.3745942360556466  0.6288540363478062
  0.8910281392701724  0.3579737798237269  0.6237667081861158
  0.1244066302183818  0.6366424158115035  0.6303935499208155
  0.3644216205898706  0.6289194919315767  0.6322759792671422
  0.6134696683334649  0.6324058225984588  0.6212069025676753
  0.8750543999144458  0.6326737306668440  0.6245344249026289
  0.1215824291299005  0.8664812827671207  0.6330832059263641
  0.3832788200281012  0.8662795463786648  0.6317427386507593
  0.6205657002075199  0.8697100552841438  0.6389784137864972
  0.8713818549902038  0.8740627547417403  0.6256088143576257
  0.1361749109328009  0.1128713932194317  0.8749618501143569
  0.3863153131152573  0.1236237799870286  0.8748835114187137
  0.6252738767127225  0.1167611249250750  0.8709391211106734
  0.8848903807388494  0.1086080511097828  0.8652608691984998
  0.1158225597719855  0.3828502116520877  0.8764727145648620
  0.3750153150132672  0.3766037043322971  0.8883332509777009
  0.6400356607215678  0.3593681712615700  0.8839053232492323
  0.8761425869729633  0.3734155729951930  0.8658886912340704
  0.1344577090044611  0.6207158771938707  0.8659273178335323
  0.3681643154534803  0.6385756526690801  0.8750955333311919
  0.6232721662038930  0.6289192623948401  0.8644773499456382
  0.8742488660585688  0.6303590960442409  0.8709273087752019
  0.1229061168317168  0.8781633738414382  0.8832251838994215
  0.3668288266087150  0.8757889347102674  0.8969601735362568
  0.6196786561742396  0.8895393042609191  0.8708911048970428
  0.8605883233728393  0.8677372372891007  0.8915183375131688
