generated by phonopy
   1.0
    15.9923497217343744   -0.0000000000015236   -0.0000000000010772
     7.9961748610645493   13.8497811253384029    0.0000000000003944
     7.9961748610645493    4.6165937083140518   13.0576988688087816
Na Cl
  64   64
Direct
  0.9895338854092491  0.0052779955404950  0.9878970783375964
  0.2495831056294777  0.9905205286275466  0.0020163302027857
  0.4996773363761561  0.0035670115065985  0.9932365073120429
  0.7550264424078968  0.0006501659511099  0.9918058995121869
  0.9933530107579940  0.2528762007730841  0.0022444104984115
  0.2434629619005068  0.2345559149800017  0.0254514233454684
  0.5040805419812755  0.2342648780367568  0.0181828634483449
  0.7414572124415079  0.2413906481408129  0.0083697540587435
  0.0186217604147724  0.4994666152284292  0.0019011559378212
  0.2526503718072955  0.5028960556275633  0.0059349174376991
  0.4767283427110953  0.4978580952488506  0.0035637568480286
  0.7586326143222316  0.5044902278692910  0.9817021571428670
  0.0117314919753793  0.7480135636356779  0.9888106268572513
  0.2395526505830876  0.7496387018782198  0.0112086316659262
  0.5140653879735121  0.7368220588604757  0.9934569629682251
  0.7569156840038045  0.7435102221767241  0.9999974164380457
  0.9960874830458198  0.9841546662765901  0.2657979596497030
  0.2569988197045944  0.0019482284276725  0.2551206223207538
  0.4889899941215744  0.0066088170641830  0.2351558610483636
  0.7579728657183873  0.0282422194342574  0.2328710865066931
  0.0034280192295438  0.2528526753648603  0.2427852249722684
  0.2492417759967372  0.2361074970212939  0.2512581461043310
  0.5030055597054498  0.2411112063388675  0.2477404621861154
  0.7611754548414223  0.2434697759923656  0.2584875076717206
  0.0072138909656083  0.5029115910386438  0.2382600631559031
  0.2636024873836834  0.5084694761357940  0.2564969294386751
  0.4891993646996012  0.4989742245157980  0.2564878462308497
  0.7442118451714929  0.4973754671772826  0.2599259393892636
  0.9966783962804859  0.7547092523700349  0.2510076194755690
  0.2427451892011286  0.7536014339532615  0.2541907406882191
  0.4909451022647118  0.7456798194846920  0.2478234994467053
  0.7399309935502389  0.7371541106163619  0.2738783411600402
  0.9969045894231635  0.0165448081318119  0.4960456823332300
  0.2557808921854051  0.9958604909918939  0.4986903786282918
  0.5101807107026988  0.0063838573754066  0.4840165988940099
  0.7257293762966094  0.0210036286222129  0.5138166506365238
  0.9949659450534656  0.2439550226383509  0.5055854709868808
  0.2524272784261867  0.2625769278648594  0.5015696091522460
  0.5076509184991678  0.2422549333256797  0.5113349954683662
  0.7511264683610277  0.2459225030596240  0.4960980304592791
  0.0166269100862343  0.5051261921425841  0.4911404693786917
  0.2536172558455937  0.5023830044595645  0.5045170098099475
  0.5082262463360008  0.5067682298506286  0.4889985606467111
  0.7715233840052700  0.5070202364810065  0.4760314601156225
  0.9917989778485415  0.7556772621496699  0.4973071389954971
  0.2425952299461196  0.7622359117376716  0.4907079856672805
  0.5115738837168522  0.7533572282311436  0.5034960547399916
  0.7354906758094928  0.7623542847035787  0.4839462737878923
  0.0074855377310823  0.9815517059370560  0.7635819696235879
  0.2677042825704284  0.9886118975783031  0.7400136260960171
  0.5035431598413395  0.9873630146404220  0.7509050954561630
  0.7584573409891585  0.9905324590922850  0.7507921561886876
  0.0058465082288017  0.2392941839371658  0.7566436644130282
  0.2481955340796596  0.2531333241037884  0.7540539610671234
  0.5237795665347675  0.2484369858221149  0.7398320600808713
  0.7495651059680618  0.2387958674385452  0.7412462109500115
  0.9952671222281847  0.5024052357180597  0.7462916222102174
  0.2549486126325946  0.5068588490363130  0.7291376558614614
  0.4897442088933012  0.4943049762034815  0.7538008799823014
  0.7628810038290715  0.5063953508640000  0.7494997307675585
  0.9889681264808041  0.7586746473067600  0.7608493328531827
  0.2432613930987571  0.7642840622826630  0.7287640820507065
  0.4746379233470288  0.7649784751909970  0.7458730702874753
  0.7426560665452071  0.7527768859843998  0.7669037647418087
  0.1161921685624932  0.1356351424264492  0.1180247131983429
  0.3765215206250275  0.1187678785457395  0.1204432426683124
  0.6310544767462549  0.1321226394236545  0.1328385846807788
  0.8977069352339905  0.1044542858880124  0.1373831082969504
  0.1220923622852007  0.3760946330316021  0.1096905616168506
  0.3730724523455310  0.3684515401164299  0.1300984264049084
  0.6400126547165321  0.3615860222951822  0.1258773180377795
  0.8815224328002935  0.3702405776983121  0.1293169484345408
  0.1222843946065585  0.6351820865777552  0.1224225988403059
  0.3717925771214117  0.6237225805575198  0.1278390579133374
  0.6318905933667461  0.6365002181151744  0.1194553050217060
  0.8790120026831112  0.6255102579534420  0.1196015253246945
  0.1236092512265470  0.8696089419710752  0.1145506055973522
  0.3612855673712438  0.8800140196636954  0.1228124073373205
  0.6243925794033892  0.8718893561674036  0.1311851059210970
  0.8828499235009428  0.8637608087517927  0.1368409699141968
  0.1288515486741591  0.1315579089301595  0.3697227960488592
  0.3857306224268934  0.1130499552846657  0.3715298908021016
  0.6234686467279333  0.1220343920343410  0.3830936551244841
  0.8726429347116099  0.1194672624207431  0.3632715947615381
  0.1180128596123945  0.3782304853340824  0.3670031624333702
  0.3724263697908808  0.3689961348951840  0.3926300128258986
  0.6218521533300259  0.3802669758404389  0.3704413491683957
  0.8724830820139073  0.3705927524337901  0.3778239749611667
  0.1135573185476980  0.6392042787998161  0.3596467038565538
  0.3693640868013222  0.6284207477872763  0.3828191732397228
  0.6254033541291997  0.6236722545827121  0.3790503960264502
  0.8798882185670193  0.6248895966921861  0.3657569958471168
  0.1179832535377486  0.8875758708427695  0.3660485714400224
  0.3611487439024599  0.8819998046638379  0.3848844644090330
  0.6209738687443394  0.8715575634215043  0.3806548346503689
  0.8662802440634525  0.8734958403571017  0.3910216807872806
  0.1279939288735499  0.1259773839940795  0.6274316096544112
  0.3707533396167027  0.1271738795731138  0.6295516069092101
  0.6242498533954195  0.1341424810235693  0.6202190185564450
  0.8604881814259245  0.1340823260657807  0.6274730484022316
  0.1149514136388981  0.3790789561042175  0.6133155175689899
  0.3805570777545664  0.3769961430430100  0.6143028603764649
  0.6155572915453016  0.3689343378358410  0.6400868938002866
  0.8745796838389106  0.3687722082211261  0.6262883181425053
  0.1302825463927290  0.6258116368902601  0.6111638956988258
  0.3712109892428758  0.6503999645077787  0.6181759096088398
  0.6312000412094965  0.6218559433358526  0.6273700118511710
  0.8830514357170450  0.6320990959924353  0.6054574466999861
  0.1230659853078556  0.8764699655691093  0.6156095025598540
  0.3700572981180897  0.8681673708474411  0.6295595848859544
  0.6214615629303875  0.8521875147874529  0.6481030817549385
  0.8849986578453746  0.8749694974082224  0.6164223848981984
  0.1145138168959702  0.1479512651059876  0.8795073363277021
  0.3585402411581750  0.1298369101608648  0.8805116436048912
  0.6285694890158786  0.1183051600829760  0.8778873665538792
  0.8885107889066952  0.1180892439460199  0.8749154667261233
  0.1389537686737716  0.3759638011572751  0.8703114705371259
  0.3822830186760723  0.3644848750942954  0.8770569965156194
  0.6121622924103792  0.3743992625188656  0.8887945003678083
  0.8870470281594028  0.3716949074140198  0.8867304433827147
  0.1309718920716093  0.6216152971707190  0.8764898950025524
  0.3709774052040929  0.6241956411409066  0.8869352974212344
  0.6239051876230900  0.6278975102885296  0.8859497930518294
  0.8991129324842742  0.6106591996533915  0.8709983314264901
  0.1164180056915904  0.8692080629323520  0.8777473833603010
  0.3643394759441532  0.8813682389668049  0.8820566625067977
  0.6222116316406429  0.8570836888264362  0.8884748609207918
  0.8547631198092009  0.8919685365143986  0.8800158849862398
