generated by phonopy
   1.0
    15.9923497217343744   -0.0000000000015236   -0.0000000000010772
     7.9961748610645493   13.8497811253384029    0.0000000000003944
     7.9961748610645493    4.6165937083140518   13.0576988688087816
Na Cl
  64   64
Direct
  0.0018683968108477  0.9853048135524944  0.0143274454190429
  0.2609248564746328  0.0043804067918181  0.9792941730152818
  0.4938659655240074  0.9855504547924574  0.9969642426222105
  0.7503296608129328  0.0006782290113539  0.9930607630174463
  0.9990720799890952  0.2415948951535129  0.0087424999447191
  0.2439420266956139  0.2584921399781175  0.0137546732488889
  0.5041741753289078  0.2398362215042208  0.0143417192758753
  0.7439210364999828  0.2470244197419120  0.9954869440871950
  0.9897103477257337  0.4904869065238148  0.0112849833340766
  0.2245822167934848  0.5109006953722269  0.0038048886559955
  0.5037049486194040  0.4956418723862110  0.9947968391135261
  0.7509729895397884  0.4961638814752281  0.0078454471558396
  0.0087285180127261  0.7303275648898092  0.0111048198269312
  0.2488548971814352  0.7602122046534929  0.9909828407173108
  0.5064271256900749  0.7468661623236691  0.9858344501075995
  0.7455055799704200  0.7663987825160168  0.9783571881190872
  0.9803089971207899  0.9925068620714579  0.2688439274340741
  0.2517185912030224  0.9954982023245794  0.2409146324967434
  0.4928023931906148  0.0071786552624664  0.2548273652017788
  0.7693653485928910  0.9837221193375172  0.2535491560436481
  0.0123324734059482  0.2573879056740339  0.2539837443729375
  0.2582811796808726  0.2263523322558984  0.2647942306645642
  0.4900509577258422  0.2554248438805368  0.2560803069629622
  0.7663612767898406  0.2520865280817962  0.2485266549341869
  0.9952017667884325  0.4921299738036635  0.2573693755727769
  0.2354820196762773  0.5109829266296122  0.2428742711066307
  0.5060723340910835  0.4912050834936381  0.2494798425993134
  0.7537036020010102  0.5044049692133072  0.2386996495603822
  0.0025669070558703  0.7553893483182254  0.2578846523326441
  0.2516737826997285  0.7506215480719184  0.2499506587893347
  0.5028866520031748  0.7520686987349866  0.2589239061949181
  0.7506019165773109  0.7526707010848406  0.2401811738782442
  0.9889434327303175  0.0004669828160509  0.5115422653811191
  0.2551456390679603  0.9815169811021269  0.5124162869117188
  0.5154165006044058  0.9963706634429451  0.5090996116894576
  0.7339920807753760  0.0180232960126855  0.5037057490858137
  0.9890168813132709  0.2591858380946731  0.4826144948724557
  0.2489151733079857  0.2446541173104187  0.5100354069073835
  0.4916920168477059  0.2438509600045623  0.5071527548459123
  0.7442441345043787  0.2579505955037859  0.4920938478702077
  0.0054725569888522  0.4978398250837309  0.4939528613812035
  0.2527908776222388  0.4955668988537512  0.4875704491741507
  0.4872113129624840  0.5189954237044874  0.4759544648229687
  0.7475923269699398  0.5064778044117206  0.4973023814236128
  0.9866751304389024  0.7474614661065904  0.5227733497279844
  0.2407436993250248  0.7336468008238384  0.5100321682436727
  0.5092454644492385  0.7361215680608355  0.5066447291322823
  0.7618766717826477  0.7387942726174223  0.4930731704773459
  0.0092969062975800  0.9856025832450331  0.7706533578937835
  0.2587420692744204  0.9963177298571311  0.7554412112280281
  0.4938423132793381  0.0034045386781874  0.7546803369446303
  0.7581227937631223  0.9911053990566883  0.7686119989429371
  0.9946636855130166  0.2413003515892294  0.7667974000871953
  0.2424580813156982  0.2717885141757069  0.7503826108008591
  0.5158896998091284  0.2442069383154499  0.7472468354309763
  0.7365114008078260  0.2571813646602628  0.7551651990233090
  0.9957030236896066  0.4896185223432952  0.7629557811845976
  0.2376384805078768  0.5107543634076539  0.7568019486812768
  0.4976000891084248  0.5090197852042306  0.7313738881063561
  0.7525687938238070  0.4922668601645411  0.7597095274980091
  0.0039548607487205  0.7628102874631844  0.7371344745986501
  0.2405609907354718  0.7312016794444037  0.7604206949122834
  0.5173983120966573  0.7415197243809224  0.7419884554994161
  0.7387654969332116  0.7455957299446854  0.7613788030168197
  0.1424480588353482  0.1185199644025875  0.1098371916028121
  0.3585216719912130  0.1346509510545640  0.1348892619221541
  0.6154304417894357  0.1423371871402324  0.1168646747538138
  0.8703340946349168  0.1323360916945451  0.1207943406892685
  0.1098278749434265  0.3800345978762472  0.1342749166304474
  0.3825805410811210  0.3770332698009799  0.1196274631638330
  0.6202537070392452  0.3777568256091080  0.1238855060484587
  0.8720899181397815  0.3759081552301440  0.1281375322137127
  0.1264281828873135  0.6375282774941405  0.1324862772962316
  0.3770035596620560  0.6084051013165900  0.1343352313214598
  0.6352700383079239  0.6116779787680725  0.1200739611140362
  0.8820680778912412  0.6145552878697927  0.1343028366961084
  0.1405156956742345  0.8706848163843925  0.1271308422991064
  0.3716984371654703  0.8698057049397050  0.1256721302046352
  0.6353138609213225  0.8602157651268231  0.1408975548352800
  0.8796531473399228  0.8698594028091376  0.1167399970421569
  0.1190547422355941  0.1138071598144816  0.3753065120463271
  0.3831140893115667  0.1113001651321439  0.3631681652172366
  0.6336215195131430  0.1088376013436480  0.3806020791237073
  0.8770310179728075  0.1372243157518378  0.3629577639115202
  0.1326716251816972  0.3759756546710629  0.3739544660914859
  0.3689324823553179  0.3742714108799534  0.3737278014274060
  0.6286490598711068  0.3875499528122951  0.3861357434735913
  0.8831730112078917  0.3868250345285596  0.3722609549434570
  0.1099493214546879  0.6173497952874849  0.3842350974997755
  0.3760734030513846  0.6290302995661224  0.3794324074234650
  0.6301272799837595  0.6155620419492729  0.3753656989323277
  0.8850371696799451  0.6209084556051925  0.3762186261049930
  0.1291572458038668  0.8629744240704553  0.3595818518410520
  0.3975794158904175  0.8684157092081854  0.3746456991198003
  0.6206717295609003  0.8739059949799941  0.3706347363631437
  0.8654007311507982  0.8701283107095638  0.3726978952410015
  0.1168856665380256  0.1144816692024502  0.6383486477538743
  0.3801294949155311  0.1350492275974800  0.6159002473750371
  0.6309216472085855  0.1250151842286852  0.6253895980209631
  0.8812734480991945  0.1257758975937315  0.6249596945401936
  0.1285862356720394  0.3636979386535959  0.6228167302629629
  0.3687823681712900  0.3714370412365640  0.6241072851147245
  0.6262721558601926  0.3836477068719385  0.6183651403473169
  0.8862173200360786  0.3721599967391566  0.6203458294154415
  0.1283439163280354  0.6242949146043709  0.6251221916906284
  0.3756367912633735  0.6186645714410733  0.6351399285592167
  0.6184177753254425  0.6243410632583291  0.6337052701473650
  0.8893658424849465  0.6316334726343410  0.6187101681561745
  0.1176475802014363  0.8727562158173789  0.6320090593996747
  0.3848843045158628  0.8692710694325381  0.6222092493007318
  0.6079320854371868  0.8650546949503439  0.6320510787219017
  0.8671984525176325  0.8723317987659034  0.6339047132894863
  0.1564202468108360  0.1192657771637582  0.8661683135560022
  0.3834640209291258  0.1153828472962219  0.8706975913168119
  0.6250893660043908  0.1446309167297929  0.8660646243936573
  0.8866099043373532  0.1164391686487308  0.8622815302440767
  0.1223162867127880  0.3796390913232009  0.8677487049877501
  0.3854630901086744  0.3769824379209564  0.8577018897219771
  0.6319964405057100  0.3978221985343197  0.8650446433192884
  0.8583130074605372  0.3887474698562268  0.8808948084477639
  0.1197429666304159  0.6170388601521248  0.8876101662395610
  0.3765904164336340  0.6239316033451755  0.8779010295950835
  0.6141514808792150  0.6212960625178607  0.8878869966690417
  0.8581673645649310  0.6244532243859933  0.8829457350365766
  0.1305607980840238  0.8621646765187767  0.8955106763843697
  0.3625392658015136  0.8779552818157761  0.8737929538580684
  0.6203373467135893  0.8658828384707680  0.8856957314096459
  0.8697216055508308  0.8793274042349644  0.8750592648070726
