generated by phonopy
   1.0
    15.9923497217343744   -0.0000000000015236   -0.0000000000010772
     7.9961748610645493   13.8497811253384029    0.0000000000003944
     7.9961748610645493    4.6165937083140518   13.0576988688087816
Na Cl
  64   64
Direct
  0.0144876590071996  0.9871938326284372  0.9926175585075090
  0.2568886126197387  0.9938768089724155  0.0034475307020664
  0.5106622528483061  0.0055863453425363  0.9871338161388339
  0.7583133044024029  0.9993643611504268  0.0063339680516019
  0.0021449602635497  0.2714076664532182  0.9814797951485148
  0.2546150838973583  0.2391872126347902  0.0026952377933833
  0.5215928712687276  0.2413889671904429  0.9897831263599753
  0.7431233627363775  0.2445887222296660  0.0111410944581357
  0.0021181535846854  0.5117040791972238  0.9936555736208531
  0.2336466377369414  0.5118908546989425  0.9791200862820073
  0.4857225999983935  0.5086035954341416  0.9937811671280101
  0.7487110911783736  0.5033476733681705  0.0059027675950694
  0.9943271991657634  0.7493615937881996  0.9983756849049120
  0.2402241329129824  0.7483691214638404  0.9894558010778279
  0.5049930111804009  0.7476200127502507  0.9963251951020539
  0.7380999624241457  0.7546839576995187  0.9996060638971229
  0.0017154290829336  0.9913518209393540  0.2743781589495227
  0.2565429199054138  0.0158484889716057  0.2492930786958088
  0.4929981575357159  0.0065443999230766  0.2536075290199610
  0.7480185227025479  0.9975788414080708  0.2530225433902033
  0.9912757666621381  0.2664432277447574  0.2360416275849188
  0.2381385585011065  0.2679303378701429  0.2578229414101136
  0.4936644892054438  0.2656564342418730  0.2492404986252918
  0.7438426013563657  0.2494487607179716  0.2563539135640499
  0.0054545821908960  0.4937800651129289  0.2472600847950855
  0.2444502678617240  0.5098954677079860  0.2477520604080267
  0.4999207728273712  0.5176565272673342  0.2330830660618481
  0.7465016110353251  0.4930215625546466  0.2548943563558054
  0.0013949169670318  0.7437203607080161  0.2586342004224799
  0.2598079164948982  0.7319029662136238  0.2488738959155005
  0.4975615649929803  0.7408053369826323  0.2529961051444278
  0.7546187722794870  0.7472415936016605  0.2604884147085859
  0.0001386314872290  0.0077659089597127  0.4949638556773057
  0.2661312525997265  0.9758170285674719  0.5061213089248342
  0.4866942371595847  0.0077000881619468  0.4987098350032363
  0.7397165804628715  0.0045536592000039  0.5016139777324293
  0.9963528693664379  0.2336617880297701  0.5136284258466272
  0.2438452186250220  0.2369499760061078  0.5176141447431313
  0.5070588426828185  0.2479478584755541  0.4975240624198786
  0.7500412459853835  0.2401851757674394  0.4948017530268231
  0.0059325184468953  0.5147237899842805  0.4932813550444208
  0.2400725426131479  0.4971750476826566  0.5165439729400862
  0.4984015080669602  0.4873098148107962  0.5024001753305087
  0.7476216686891968  0.4863934535540221  0.5009057437166996
  0.9836008486508910  0.7409972074447226  0.5214025505066098
  0.2474628704230207  0.7475107215699720  0.5142266303139785
  0.5012609163898152  0.7608974814021255  0.4932047043875840
  0.7389112420372820  0.7678816477100607  0.4865819560590573
  0.0026105598321439  0.9909852914203350  0.7460789083068962
  0.2551393911536800  0.9946307575409380  0.7379837759272416
  0.4961656017664703  0.0097174415980536  0.7481253908625309
  0.7775856070419748  0.9741187093873807  0.7565032247481763
  0.9950451617664225  0.2575029228428074  0.7365277090124975
  0.2547443156209695  0.2555112115726213  0.7609989561495426
  0.5205635023527984  0.2435551236043588  0.7262101754676439
  0.7506048808236734  0.2548856048216896  0.7547435516547230
  0.0036061352603320  0.5040847000564499  0.7563047362016102
  0.2248082428550653  0.5251814229662967  0.7540843837365557
  0.5124723525337682  0.4815969918262557  0.7576532784541080
  0.7478870237484998  0.5017525430007689  0.7529856816228166
  0.9933750738137298  0.7471669359218669  0.7493399234186993
  0.2352762301995568  0.7514043738118594  0.7626065395752641
  0.5061916304720804  0.7625776168328549  0.7519654870054786
  0.7677737926765129  0.7370313038489105  0.7504289919557745
  0.1200997637324882  0.1319848363647337  0.1211472095334859
  0.3869096651258385  0.1320715478129360  0.1231474061869284
  0.6207805069344371  0.1208589336285042  0.1212350194865732
  0.8561310674643956  0.1424496754027697  0.1368033715162841
  0.1100407572776821  0.3853285289174850  0.1337552891287212
  0.3638802520008799  0.3852259595959956  0.1296265306781460
  0.6231779284203536  0.3683114506625468  0.1417975324638658
  0.8835521487324192  0.3781809030361332  0.1350475239374325
  0.1304608328935366  0.6212511416054209  0.1274217978043121
  0.3842940351024640  0.6346793393131355  0.1220160133120939
  0.6275758163984168  0.6399995689741819  0.1114803375645474
  0.8674831391868235  0.6175322166678107  0.1367516955441929
  0.1231716643765031  0.8769767367404193  0.1304447677098642
  0.3578238557733879  0.8723348347961197  0.1238459487468570
  0.6356523630857952  0.8954216024813035  0.1225273093571305
  0.8741683775428533  0.8806918902027325  0.1115789171015318
  0.1535358068675152  0.1178515965155113  0.3528972773310020
  0.3506717657388928  0.1326110695177471  0.3870152472242238
  0.6272384401670587  0.1173506231922551  0.3774188398704368
  0.8821296192349564  0.1182215588266096  0.3724562048263102
  0.1327994245234796  0.3854106476640686  0.3554687420817357
  0.4040461288828303  0.3613902444665808  0.3722709950291975
  0.6110625242995896  0.3968137137321125  0.3735956582706575
  0.8926066137773495  0.3593321389097422  0.3719803047052725
  0.1175700149996354  0.6350092014818036  0.3742095943073361
  0.3605909282391206  0.6263252088740834  0.3732984842001859
  0.6263501286192981  0.6207949705713709  0.3845791250659474
  0.8670305013622666  0.6425516891389378  0.3788453479876351
  0.1317950378665505  0.8712613253264014  0.3692111311179722
  0.3844101184948742  0.8648844234474901  0.3679484533950393
  0.6245980735968559  0.8805113155130835  0.3562425590376024
  0.8700800715810976  0.8718838320842413  0.3806212902879881
  0.1162958222822922  0.1269199848834321  0.6221629408602660
  0.3776802837086556  0.1248440903516441  0.6282104492207983
  0.6389038950522592  0.1174136303479955  0.6321852875538271
  0.9002335993491921  0.1304477718957901  0.6162740442861293
  0.1562532409831499  0.3598406038211422  0.6193321085593438
  0.3765464480136368  0.3767458145746590  0.6117791642036901
  0.6180245963594201  0.3894190364626896  0.6217771421781243
  0.8800650907946734  0.3708155026323087  0.6419883785400742
  0.1122741336837351  0.6360895174468194  0.6226640681517229
  0.3738818594272275  0.6016283030200273  0.6309954095819188
  0.6260931391260710  0.6390225654677842  0.6103418046230570
  0.8828665345797844  0.6226174306582845  0.6089107169577714
  0.1224435692831908  0.8825845114663871  0.6082850922608083
  0.3692782586616324  0.8908788180200055  0.6251338107925345
  0.6257545101051105  0.8816984963090266  0.6217455381039665
  0.8880781762623403  0.8785409594620304  0.6038565585667194
  0.1205883129862765  0.1254556036500783  0.8816408166028475
  0.3724275198777502  0.1421287001431352  0.8536468716385509
  0.6224072865665702  0.1201446725171751  0.8735180610065120
  0.8902052716079816  0.1315353289988492  0.8571810103477739
  0.1152895199228834  0.3722018265231650  0.8696515260471995
  0.3660943588053302  0.3719175999488984  0.8770696245082019
  0.6237264644456750  0.3829323832668750  0.8693271101988572
  0.8630772737923429  0.3971060094279570  0.8731863866942740
  0.1255484269489681  0.6134925172611231  0.8747442732361866
  0.3754649497409211  0.6184804957804437  0.8843433268395573
  0.6136189991420252  0.6208622774789456  0.8779702797113407
  0.8726591170557542  0.6237905665943277  0.8790320866782343
  0.1280026740126420  0.8625580444866094  0.8763191526346207
  0.3714132474681287  0.8757094338836409  0.8628095670879021
  0.6172151205333107  0.8848163273044414  0.8634423321368141
  0.8809871758823943  0.8591854297418200  0.8844678499215717
