generated by phonopy
   1.0
    15.9923497217343744   -0.0000000000015236   -0.0000000000010772
     7.9961748610645493   13.8497811253384029    0.0000000000003944
     7.9961748610645493    4.6165937083140518   13.0576988688087816
Na Cl
  64   64
Direct
  0.0034401644501307  0.0066287710199254  0.9945016094680463
  0.2607081437365960  0.9844572470464249  0.0030277103597660
  0.4953386872309094  0.9967877694709131  0.0075939959587710
  0.7516573356197683  0.9875670794071236  0.9993119007896515
  0.9985383310074134  0.2542766163702055  0.9785863024648042
  0.2598031556429065  0.2532279426862610  0.9797709344405614
  0.5006578989015132  0.2560652171881821  0.9841041341084461
  0.7564576060477659  0.2503206664709444  0.9924544613202300
  0.9915997172903919  0.4986152508486009  0.0022222431120213
  0.2647505012211477  0.4863369209010649  0.9968697619120008
  0.4745176140044829  0.4896795615744018  0.0014507495949531
  0.7623625002705401  0.4954831112401848  0.9916013769859314
  0.0066771919713964  0.7641990277728028  0.0056780935737005
  0.2442502716093730  0.7498861659394234  0.9930805185237260
  0.5047561156530843  0.7424489480123316  0.9799407554497497
  0.7383335196337668  0.7580989071816560  0.0097985154322837
  0.0056877390495346  0.9998215395638177  0.2530647421627022
  0.2556547308381290  0.0044235502340246  0.2381172823639869
  0.5014582742005146  0.9983981971888860  0.2453066048386065
  0.7410990748871675  0.9926688987856422  0.2504522539816816
  0.9802254124887403  0.2537124448206680  0.2450471097617519
  0.2611894331261391  0.2460757195331275  0.2602894274671531
  0.4954561678537441  0.2280853034134919  0.2653977564458265
  0.7522681211051633  0.2408403099950926  0.2670691990620261
  0.0064248738820588  0.4994637425660608  0.2424050494456712
  0.2477248470620734  0.4989842217217544  0.2540122498630080
  0.4903715910095718  0.5182648656541750  0.2411776911877953
  0.7445605855221262  0.5067123736505498  0.2444311531264382
  0.0012323366153590  0.7505069225492681  0.2546257663740528
  0.2640631105526142  0.7576681277303318  0.2429639260595628
  0.4851523991212084  0.7496337815298268  0.2513129363517096
  0.7434265141316376  0.7455505685588285  0.2464837290030335
  0.9980714770949889  0.9916736258178087  0.5145816291672926
  0.2498795976090134  0.0045801662759073  0.4930799097051606
  0.4958057376956115  0.0032869799553698  0.5007374205752120
  0.7387474949085937  0.0212875990904584  0.4829235590211629
  0.9836401404883087  0.2446616818610589  0.4941127529989369
  0.2538480378976461  0.2554290458088857  0.4907366469281764
  0.4894316136949940  0.2410341169646462  0.4966356366528388
  0.7413239348816545  0.2435187145323983  0.5081285763183536
  0.9831000231294869  0.5110381379953152  0.5164559675602328
  0.2541528930727016  0.4915335915012203  0.5191899748856476
  0.4943155754526750  0.5106525305777760  0.5010720716507633
  0.7609816333997574  0.5212915864252857  0.4920888249743942
  0.9903508681146385  0.7508072867648445  0.5163610215346144
  0.2778453291592274  0.7333771931946933  0.4882457504990146
  0.5062424030742704  0.7610001043472689  0.4966955539285444
  0.7361593283122533  0.7344075660420883  0.5210580630456279
  0.0004929780300465  0.9849711874917336  0.7641215654613265
  0.2774022613332164  0.0021914090064896  0.7372183763017243
  0.4873291015393760  0.9871801423042302  0.7590723877424943
  0.7623589936833659  0.9897368189918249  0.7425653399051853
  0.0163536590291101  0.2478799150063999  0.7453990522545746
  0.2529650311269076  0.2489178483600021  0.7519121228028974
  0.5164563666800313  0.2374951364883301  0.7455934767802997
  0.7545651570671411  0.2421907348397796  0.7713102953791701
  0.9828874973913596  0.5045352415864124  0.7553490422595379
  0.2403826651399168  0.5072798234279716  0.7592152233109631
  0.4823729787702239  0.4973452653118302  0.7763978138323230
  0.7414877753746753  0.4754342783550625  0.7681637544195099
  0.0025953608264754  0.7398331690419930  0.7418132544056379
  0.2508595604313566  0.7701802877185796  0.7326679830355189
  0.5246370097949591  0.7238270990476945  0.7600088505496675
  0.7453585620015728  0.7497508645682573  0.7610836920538727
  0.1297398700255778  0.1118367067149353  0.1265913846865752
  0.3821289896037253  0.1217337278273224  0.1156900024107350
  0.6238235707246420  0.1192248835533441  0.1363365440471727
  0.8628397024411174  0.1266113920479948  0.1203921889236276
  0.1250561531704684  0.3775293554839295  0.1341706306319125
  0.3721765571536444  0.3877645269242160  0.1159429240159029
  0.6159412614788652  0.3812172678432258  0.1246109716765874
  0.8807849446430573  0.3707215930854972  0.1357572215141953
  0.1159332774036719  0.6430991814976061  0.1260602899131321
  0.3882916729646750  0.6071239827993615  0.1187085693655274
  0.6354414495506862  0.6055589834618452  0.1336241814485396
  0.8679301709729381  0.6209282575618095  0.1255595086839621
  0.1244200865420438  0.8758479170895745  0.1279706408942393
  0.3818453297869059  0.8770227271547821  0.1322848245393141
  0.6145065217484990  0.8862505923675275  0.1251355514993888
  0.8818339044038624  0.8726265626180673  0.1123732045118176
  0.1177696580929485  0.1118899336436999  0.3994598376374750
  0.3711101218058809  0.1182451809149429  0.3771420645028031
  0.6305734186589103  0.1268203207947905  0.3786792087045919
  0.8671587363977273  0.1264320966305254  0.3946533731142912
  0.1244976257384459  0.3760046893657344  0.3690243499184855
  0.3669175648395974  0.3820048159278444  0.3855696951253482
  0.6151153639645021  0.3836307195541321  0.3781069007086677
  0.8758923983363974  0.3679861629246188  0.3676526366133790
  0.1131347321183885  0.6319746341054635  0.3892720583354661
  0.3622355735559646  0.6371257872264227  0.3532897764408969
  0.6340431796575242  0.6239747636560409  0.3627246177832505
  0.8748113355494088  0.6302355425069724  0.3605875835939191
  0.1340699882255643  0.8842527578643472  0.3726076714107440
  0.3833459956074753  0.8778664345460307  0.3788490105990459
  0.6351654948664630  0.8636799118525015  0.3884292309107639
  0.8746906982022176  0.8644494914253430  0.3894394280938984
  0.1182475613207170  0.1341723357342838  0.6269808185918473
  0.3765398985602818  0.1117867955281403  0.6212994175984518
  0.6343081394294544  0.1182900685355124  0.6092358899778453
  0.8631046332074620  0.1302138135712887  0.6202779079158920
  0.1238601299384302  0.3927376366900514  0.6164405496020767
  0.3673410706919744  0.3811720583182733  0.6111651509948363
  0.6124349017691226  0.3854218560523368  0.6297074191002004
  0.8730410003940684  0.3854048097253447  0.6287307328999845
  0.1196454791188447  0.6274062716911575  0.6285723479227580
  0.3699803108712513  0.6153062118953476  0.6235569269680989
  0.6197480745947217  0.6266787825039895  0.6475549236572199
  0.8819657904069448  0.6275902172894445  0.6182846576141106
  0.1130952771311721  0.8869110946879493  0.6175072339645640
  0.3586034914361211  0.8816817433429274  0.6319839626088634
  0.6112881661691304  0.9041762004273495  0.6161942702245758
  0.8857063112249548  0.8635702601720443  0.6370932695772513
  0.1328443803979558  0.1344517165591842  0.8632208283084652
  0.3641532744884744  0.1297566969770068  0.8723963397595058
  0.6214066627985153  0.1204853255788990  0.8667029407038881
  0.8732242025666824  0.1299974477942500  0.8608685177001805
  0.1194705330474182  0.3798956049322412  0.8847931690124521
  0.3807650416292784  0.3666550461265111  0.8822079861586650
  0.6373105651754929  0.3530513031828592  0.8941188566606895
  0.9034600364612959  0.3523598765684355  0.8686995238165857
  0.1145534246097925  0.6107442809360928  0.8951885103688324
  0.3773766581684937  0.6169842927941933  0.8777701849564725
  0.6443633664957014  0.6139652257762043  0.8701413630922120
  0.8963069020752595  0.6283828022514870  0.8541103246437516
  0.1103076943558258  0.8972279082554385  0.8762077830577463
  0.3634001243307232  0.8618055886834152  0.8889087574108023
  0.6276645992233747  0.8502848820083396  0.8841570169466656
  0.8797093421269995  0.8743446232839313  0.8787764581983931
