generated by phonopy
   1.0
    15.9923497217343744   -0.0000000000015236   -0.0000000000010772
     7.9961748610645493   13.8497811253384029    0.0000000000003944
     7.9961748610645493    4.6165937083140518   13.0576988688087816
Na Cl
  64   64
Direct
  0.9901954983290557  0.9886555481903792  0.9925909154202457
  0.2346606651099566  0.9992581722309529  0.0093474909987804
  0.4872458870563268  0.9867669501901456  0.0070890017850075
  0.7437432915106691  0.0047159901852334  0.0091516305855952
  0.0193551052623475  0.2550973569130668  0.9886894474273422
  0.2441946178880883  0.2383807889031395  0.9980883433683944
  0.4956416771372569  0.2474268139436675  0.0001380874291354
  0.7354686519819509  0.2498790690947139  0.0088909198686723
  0.9935025289871808  0.4993330377954057  0.9982108439973558
  0.2456623312607137  0.5046288460329472  0.9924341974190640
  0.5061448120999370  0.4898294008395267  0.9988485362257635
  0.7527923157671331  0.5003433956374945  0.0126890981116050
  0.9983776312531857  0.7659784534086278  0.0066477909133710
  0.2532822755416886  0.7313944017629000  0.0002558644897577
  0.5035039992789619  0.7463412675601641  0.0067104581432263
  0.7472571472027603  0.7489538586681536  0.9985578454738966
  0.0054593122462479  0.0056177868891190  0.2370029458237128
  0.2351490514159058  0.9883387073731414  0.2579319022451163
  0.4983365876966652  0.0014984839562490  0.2501679258331667
  0.7589243118650425  0.9870408952232204  0.2568185710828320
  0.0006093928964790  0.2624150239448456  0.2256367996142252
  0.2533381732612264  0.2428090884234231  0.2572978847531386
  0.4907656689622651  0.2473140844787698  0.2536391134087960
  0.7661543482528103  0.2547484029204008  0.2414466965584127
  0.0135557948095069  0.5195792810393771  0.2345163721775420
  0.2564016855813765  0.4967496604742174  0.2551581488244374
  0.5078143080446227  0.5063149508350026  0.2518850099781629
  0.7364061185285862  0.5296259702897185  0.2397080722114261
  0.0062254598500526  0.7714071037278051  0.2357680632074259
  0.2557934235059165  0.7417788760408085  0.2521298456226018
  0.4873108081937052  0.7603802188019827  0.2389271594095584
  0.7527418103574843  0.7394306743670395  0.2409352056571988
  0.9960813254591321  0.9899204776096073  0.5017963218884565
  0.2509271526434060  0.9831967817423742  0.5084206745708739
  0.5136690209164314  0.0017520971139920  0.4889253380891656
  0.7418953659061632  0.0031024840999326  0.5034355158074647
  0.0143005821037487  0.2561926101897780  0.5000203874493073
  0.2614943184449989  0.2473404036808093  0.4785280042356613
  0.4883230577190023  0.2642715031520352  0.5002350122934013
  0.7581113570815998  0.2713429510664482  0.5053330383765674
  0.0032071742726696  0.4962311072872859  0.4995659319766419
  0.2422422182027848  0.5073739204885682  0.5040966682345059
  0.4970923392313659  0.4997735554124004  0.4996107828829209
  0.7401612005548603  0.5059463425467982  0.4956057002252120
  0.9881198912245994  0.7619853318581632  0.5167849943390630
  0.2455608069064153  0.7473028723100873  0.5101808968563284
  0.4913821611829674  0.7416863057324370  0.5165339248661012
  0.7422374625208007  0.7605978057877856  0.5119182105601570
  0.0112405757382113  0.9870352277556265  0.7431393103124402
  0.2542275009675266  0.9931677448112020  0.7519632734050801
  0.4971444004145909  0.0040681352308348  0.7668761379589458
  0.7460481567366576  0.9988832950692138  0.7594437990205735
  0.0036071403037597  0.2418571136916809  0.7605531206532812
  0.2520576188417621  0.2410364286495966  0.7658068870867035
  0.5074829220427655  0.2562704297709215  0.7363066856201672
  0.7472310568782535  0.2567771461623872  0.7555412309318903
  0.0121880017664273  0.4804381042280100  0.7574242188849448
  0.2359306358188704  0.5035428692128225  0.7616942440692667
  0.4960593454310882  0.4853421428161270  0.7558436151940484
  0.7418908822936132  0.4991587746663536  0.7392074533148545
  0.9939473472760232  0.7496380542009644  0.7492158429711770
  0.2299756268730622  0.7584031329338655  0.7469523241571657
  0.4950186754551976  0.7589921993573474  0.7438419285902835
  0.7595854578310649  0.7373167885962466  0.7369791511172211
  0.1293483727451549  0.1335317772281731  0.1144571807622635
  0.3739033953312843  0.1175156680079126  0.1351661163163790
  0.6255155519145370  0.1192909092548333  0.1094324738980043
  0.8764649949390421  0.1264426965515854  0.1214399893546812
  0.1134577062170350  0.3909742119470451  0.1193621957223858
  0.3775481302530203  0.3714849197701765  0.1207057735644518
  0.6309088567124451  0.3655470916597287  0.1412533935957429
  0.8703818740257818  0.3827122218680780  0.1394214773609289
  0.1141371796903240  0.6250370108054022  0.1286323487897650
  0.3921396809864462  0.6255755190115628  0.1212506239571796
  0.6134972367633481  0.6281787542726160  0.1352169968872705
  0.8665395993019199  0.6289179565949838  0.1182457217553579
  0.1087957404954805  0.8858168244880509  0.1396693857702972
  0.3709115190130463  0.8756616753839597  0.1284916301068433
  0.6144746353729044  0.8889421067750383  0.1243908460705369
  0.8882831822509268  0.8707310204459378  0.1156449800780943
  0.1399513222468046  0.1276422365117746  0.3595289605141845
  0.3667370614722336  0.1281971079637831  0.3769594690022794
  0.6346982780559400  0.1240627354985001  0.3847053724682105
  0.8721113365633196  0.1271133969917948  0.3711350354445281
  0.1354660031597871  0.3719315195804741  0.3739872689733362
  0.3784688428689090  0.3767027281348473  0.3673644474667585
  0.6116465022368618  0.3792823520301293  0.3807336449869339
  0.8673228961859150  0.3760373057699675  0.3748864826901072
  0.1239200930619841  0.6137766472345845  0.3679758502304959
  0.3806873221456402  0.6296421090789058  0.3655001896713802
  0.6282857148782347  0.6298115097652417  0.3675222358930846
  0.8716143275857983  0.6333504509040087  0.3728797680904341
  0.1368874072352491  0.8739907654596042  0.3715470412838625
  0.3831131354223486  0.8718867974060476  0.3677250905874130
  0.6181725941741060  0.8920311951074115  0.3658143560277853
  0.8592747600460920  0.8870297222572913  0.3708606305892939
  0.1209476872291394  0.1272272461168385  0.6291008654878986
  0.3551150930892819  0.1244162139987521  0.6252660703672874
  0.6139757433692743  0.1218279277873158  0.6377944870588633
  0.8606256019073659  0.1155824929359673  0.6330108141465413
  0.1358376459023548  0.3638837977153382  0.6234818982107698
  0.3631616175676692  0.3754157818142259  0.6409616422613926
  0.6544872108760380  0.3722577886922893  0.6218428095654503
  0.8685644320760422  0.3788272265149607  0.6354319480704397
  0.1157788857595606  0.6392971042174063  0.6260530772390135
  0.3719498189770731  0.6403438400520666  0.6139288574827095
  0.6216846733595937  0.6203024992575327  0.6224808157605043
  0.8694943836154285  0.6258779451054634  0.6270230058099168
  0.1162937608488485  0.8910859973246954  0.6142854357266412
  0.3725815023030190  0.8748020121275143  0.6267915644592188
  0.6121112343159861  0.8769738289081468  0.6299771511160296
  0.8682113483761886  0.8804722276632895  0.6416657377944086
  0.1377166665071848  0.1209806712327157  0.8771877393040771
  0.3660181036607771  0.1418874978604592  0.8790504191353072
  0.6234577770034414  0.1277537294123476  0.8763427952791185
  0.8675428792759664  0.1260321001032986  0.8658322057664842
  0.1235645000828664  0.3670562732361597  0.8860347971330356
  0.3692171123827337  0.3897429944357420  0.8739470044978724
  0.6188174160923877  0.3934939015126044  0.8598763796619412
  0.8785664153108003  0.3663368351816224  0.8771457319642201
  0.1247788362615861  0.6318698193303738  0.8865747410301231
  0.3863986936480732  0.6225651213092620  0.8478925125556557
  0.6191294996380892  0.6333212207273353  0.8807174819096043
  0.8509502790015231  0.6331019319763397  0.8735770863088098
  0.1177983040638566  0.8803325976598360  0.8732104929424140
  0.3777367792319252  0.8665608144243937  0.8770430173680549
  0.6228272621893284  0.8700141474638085  0.8814927772618204
  0.8703764900830291  0.8690241967438448  0.8723821532028062
