generated by phonopy
   1.0
    15.9923497217343744   -0.0000000000015236   -0.0000000000010772
     7.9961748610645493   13.8497811253384029    0.0000000000003944
     7.9961748610645493    4.6165937083140518   13.0576988688087816
Na Cl
  64   64
Direct
  0.0162276637023532  0.9874223916214003  0.0016106775877465
  0.2466294636743342  0.0078353450493239  0.0038712110796024
  0.4866137753658342  0.0085507487909004  0.0157607469700210
  0.7518045796989533  0.0064752250865662  0.9947539079899222
  0.0048705886907706  0.2332607927769059  0.9974707830924255
  0.2373268686902648  0.2751954937017938  0.9963596612511173
  0.5109326512962256  0.2487009320311456  0.0012077600915381
  0.7385441271979842  0.2425733566282799  0.9864203720740634
  0.0082832175053205  0.5077532840292535  0.9869199730396898
  0.2402370132543286  0.5168849052861835  0.9905223684695507
  0.5012301804292100  0.5069367859785796  0.9924391489912419
  0.7523186606502590  0.4857858031650836  0.0112399821132332
  0.9944793029441494  0.7718897644567833  0.9929211284538059
  0.2534607055001009  0.7325703567851739  0.0045556643682749
  0.4999257642996894  0.7310718342530245  0.0060073736940894
  0.7763638548348343  0.7496243584085196  0.9732004754674087
  0.0088747514037003  0.0093582552008666  0.2362158809302087
  0.2513564665584370  0.0103351935812731  0.2488617405133338
  0.4839295874999197  0.9999034805395046  0.2613514980462063
  0.7547572998786464  0.9923145108330446  0.2525364922038480
  0.9930557586849631  0.2546714191290514  0.2473887623363078
  0.2416554320624851  0.2578216485238710  0.2432971729153467
  0.4917349088624470  0.2595465848848154  0.2511727337666252
  0.7433841710392408  0.2405369335931238  0.2645525713469755
  0.9961719904674031  0.4962652478161844  0.2528443390007179
  0.2527244350079997  0.4952255232872224  0.2526822548943810
  0.5026908048061003  0.5044809734753010  0.2419493062403413
  0.7426880582935853  0.5034752961775441  0.2495638437275339
  0.9903827305263870  0.7286446488685192  0.2785714364768640
  0.2541356522678676  0.7382050967382003  0.2545062927202472
  0.5043023951160985  0.7486258704316917  0.2452697704594970
  0.7649026581203373  0.7625456249540834  0.2406164637468296
  0.9825052040530410  0.0040690722975458  0.5199296021428641
  0.2561558771619714  0.0042030468130279  0.4994299424431350
  0.5208739712892945  0.9970663937838989  0.4843046767757579
  0.7417233795122818  0.9975961320042596  0.4963016206429512
  0.0078553828439962  0.2469999654749175  0.4943154017106028
  0.2490565970854646  0.2410196072997223  0.4991655675100217
  0.4855736961417909  0.2699453778604408  0.5055129291421250
  0.7624842916790533  0.2474754256984976  0.5027260287780803
  0.0108962800399619  0.5004028138631594  0.4896698895302848
  0.2416384656438292  0.4980911983929449  0.5157902338733388
  0.5008081193282622  0.4904273859204079  0.4991183006938468
  0.7340408580714325  0.5187066328307952  0.5108136356581411
  0.0039349920349634  0.7440841166999543  0.4937719116022815
  0.2500633975619317  0.7563212098819961  0.5055413336379279
  0.5098639394693111  0.7450128759911491  0.4990220607861287
  0.7349879072996781  0.7641712356689325  0.5108259672296898
  0.9967148655331699  0.9759668463008099  0.7429768082495888
  0.2554011912293626  0.0032579291281816  0.7454683933797922
  0.4913156502915066  0.0202550201695673  0.7599090168578455
  0.7378615382843097  0.9875763415769426  0.7523565864603236
  0.0206652342653239  0.2568900737894514  0.7468591694960176
  0.2593195051409641  0.2534875765647232  0.7476456904754650
  0.4915503129220021  0.2411543967932893  0.7549825100888223
  0.7609637598457371  0.2549373534122636  0.7282454895976028
  0.0069513722214990  0.5020337838279730  0.7409670239875631
  0.2534845511465350  0.4938807085836238  0.7574424303771293
  0.5214683184465975  0.5032609922608400  0.7361495499477684
  0.7589838606124300  0.4969385726882580  0.7428125875723806
  0.9971640990623958  0.7514660427432922  0.7566445111672460
  0.2564306860713746  0.7518308009305691  0.7457024407535406
  0.5034178148166102  0.7373066937293495  0.7526295316060022
  0.7600610848945191  0.7558718366900059  0.7297794270886703
  0.1249852613478833  0.1275786721888004  0.1207108503809355
  0.3802255132455096  0.1158663486468640  0.1286818145849950
  0.6168493466442967  0.1178316749363819  0.1302206089304487
  0.8574085291308173  0.1387257387322564  0.1298342179768240
  0.1184314868241643  0.3732418559495061  0.1221118303419678
  0.3693299516023233  0.3646206712062238  0.1379006086425229
  0.6120715316055096  0.3816053400674529  0.1256988827023545
  0.8623610127998610  0.3753722926877644  0.1286134651436237
  0.1155647227031027  0.6260053963427594  0.1282954975226582
  0.3746732923216465  0.6377570166925177  0.1287455111575778
  0.6416487730604907  0.6171979633036641  0.1199820660283150
  0.8692331176212278  0.6301250143608211  0.1182757381653565
  0.1177337127477670  0.8759717180096021  0.1443306547685100
  0.3829312790017686  0.8535878035410417  0.1334805487671026
  0.6225981726671751  0.8700216394607317  0.1235962165920900
  0.8886992349782805  0.8680463887907669  0.1316308815055050
  0.1250802362748417  0.1313863466910030  0.3751488690667276
  0.3759411351489292  0.1304151808630111  0.3649169477618996
  0.6169282622286931  0.1255406456639225  0.3888640414845057
  0.8827407514175926  0.1329244010485959  0.3639935291920601
  0.1269663554252935  0.3678287422997712  0.3823018640414959
  0.3819972076218623  0.3897102023248991  0.3741651009107881
  0.6130726884147516  0.3812449089794443  0.3746061563325565
  0.8631207720654317  0.3771665917661287  0.3859852357641324
  0.1248838553673063  0.6194628292370753  0.3759113959009636
  0.3802706899323762  0.6263725056518397  0.3744683251514193
  0.6297348459635230  0.6292126156285511  0.3696161495232319
  0.8707672659621757  0.6197641050154129  0.3822036302815032
  0.1298036312790158  0.8791325382028060  0.3713520387513822
  0.3688318463040499  0.8652390064939873  0.3890257955050514
  0.6259781796223666  0.8883233481801551  0.3787591100075093
  0.8655252735574761  0.8851119663771417  0.3741160863088863
  0.1504858622289967  0.1198785514094045  0.6079489502359509
  0.3721211769832446  0.1225643629382870  0.6213526238905001
  0.6155954588504986  0.1046253455779931  0.6528441339441248
  0.8818323659897533  0.1107793222520642  0.6327204830084553
  0.1235743307210545  0.3668005997866172  0.6292122556059784
  0.3688741252623789  0.3861857387547108  0.6208951823267250
  0.6416634944436884  0.3738340254943113  0.6246315129910409
  0.8850831228589313  0.3648611578519464  0.6216173118987194
  0.1223021512421379  0.6311966164271541  0.6220651949539515
  0.3750216707290372  0.6334473138403796  0.6174788625629312
  0.6142429150982918  0.6492414200963799  0.6157968109836636
  0.8798296700420224  0.6480064378311803  0.6173060299844927
  0.1201652414687725  0.8744578822490081  0.6213456938006311
  0.3729072766284507  0.8750505397872899  0.6368232702404294
  0.6233739079449256  0.8785051823386347  0.6304499121411561
  0.8852168255535479  0.8784685909381886  0.6321557744034110
  0.1220153039970677  0.1196494478850286  0.8862007917717442
  0.3881312744018551  0.1335667649862993  0.8723882265531478
  0.6402561905742508  0.1245978156097879  0.8701919937450798
  0.8608458896130238  0.1294851616377643  0.8878298784181481
  0.1051703435780831  0.3768499469903288  0.8850996095924940
  0.3638585210482979  0.3780419010340015  0.8697263371247895
  0.6213397097685536  0.3832310273305517  0.8716066199149370
  0.8679801766360294  0.3795473127612221  0.8675439382493604
  0.1320269741567692  0.6283403474042044  0.8565137497644566
  0.4015560626142384  0.6180258064653679  0.8748108961284455
  0.6147751260749628  0.6355732852781772  0.8656535035380121
  0.8702129055855503  0.6271398708763527  0.8727729282777503
  0.1206495305322371  0.8552724236372629  0.8802166216538445
  0.3883215817666701  0.8632826766115593  0.8781913598772892
  0.6310656132558025  0.8662215325318166  0.8680797778990802
  0.8698784206123555  0.8781382506768864  0.8871200906883089
