generated by phonopy
   1.0
    15.9923497217343744   -0.0000000000015236   -0.0000000000010772
     7.9961748610645493   13.8497811253384029    0.0000000000003944
     7.9961748610645493    4.6165937083140518   13.0576988688087816
Na Cl
  64   64
Direct
  0.0108122817730716  0.0092476161015439  0.0082945355805396
  0.2362073360170589  0.0067359366952269  0.0245464325210803
  0.5017364867442149  0.0043296519200370  0.0060301949755833
  0.7590524839965930  0.9931565979290996  0.9979624788314164
  0.0175665783877335  0.2483974426747469  0.9856894748300200
  0.2324272425328646  0.2221981398234876  0.0269160296966257
  0.5128626618690978  0.2521906821689621  0.9982107974943460
  0.7510087414439954  0.2302997326515014  0.0055423903689351
  0.0035384064176291  0.4892575964099007  0.0019887898641709
  0.2582861075302896  0.5021769694851366  0.0090204527229530
  0.5106043834177768  0.4805116118736490  0.0167457423739552
  0.7753018142367226  0.4876966540522175  0.9910845505060802
  0.0091195608144046  0.7549948749091909  0.9889664695747588
  0.2590287858939184  0.7422876574670690  0.0113375882252197
  0.5069867573508181  0.7369360840932275  0.0072805896270420
  0.7347341311577492  0.7597508365281379  0.0043415433922388
  0.9947519461684793  0.0013607718406878  0.2486418688550931
  0.2630475297974074  0.9889054105313391  0.2402106744757010
  0.4952113619776989  0.0001935848903810  0.2404301510009905
  0.7461932278369128  0.0010660438785729  0.2470248911078420
  0.9932844564188672  0.2601441622670580  0.2491327309634139
  0.2295829350825139  0.2353695419120587  0.2578984976770639
  0.5084647535326869  0.2564738319236349  0.2534997949515173
  0.7494645823261035  0.2554154052410853  0.2485887390219833
  0.0027062093420078  0.4874556677350566  0.2573850701964597
  0.2251782295431801  0.5056813159142534  0.2606832628967121
  0.4846526138109076  0.5037454749567276  0.2483318816358741
  0.7495520218502835  0.4975590360271226  0.2750378923214812
  0.0001487687190831  0.7513993795940069  0.2456565762313928
  0.2511639464185521  0.7427241617232049  0.2658051616252763
  0.4992983036552731  0.7622415052600399  0.2410261153355502
  0.7588820897108153  0.7496469386228402  0.2379023528632041
  0.9954305703938853  0.0030944047009590  0.4976806674444180
  0.2504780598292395  0.0096183449406493  0.4951388433707608
  0.5031877349411834  0.9962691484010828  0.4989511789990257
  0.7514890650255301  0.9834939838680404  0.5012166783991125
  0.0033691161077929  0.2542010547392549  0.5015836249601598
  0.2583755205786346  0.2485538796345867  0.4800651575668750
  0.5045129058844732  0.2476932678694970  0.4960041311793572
  0.7615394482984653  0.2482176515427597  0.4914780287468668
  0.0100586337372981  0.4842558669300492  0.5048154724132474
  0.2390412869962344  0.4981019292801229  0.5252930552006198
  0.5009920719477665  0.4971093793533619  0.5157331042106647
  0.7394760122404691  0.5136076818893364  0.5047210570354850
  0.0005533771559534  0.7434730465955771  0.4864078271021938
  0.2444683244632085  0.7372982757701895  0.5008788606967232
  0.5074723432646862  0.7400141103430156  0.4902929967881540
  0.7501143549485927  0.7572731169316900  0.4968165656052592
  0.0057762146218822  0.0130421346402157  0.7325046028360499
  0.2588300212456771  0.9813718126677570  0.7650555764471505
  0.4966573935824698  0.0063260998420987  0.7594016632981702
  0.7545188056079735  0.9980397920891027  0.7462471790255097
  0.0058867107006265  0.2445675859876481  0.7425240492252331
  0.2402634554129111  0.2533269349405821  0.7524468720568517
  0.4968207201953154  0.2452621854866758  0.7732307499240502
  0.7304370200867205  0.2765865423871843  0.7486768857652819
  0.9803494967888875  0.5023573114798757  0.7719197301811122
  0.2588014500256420  0.5118922085438442  0.7576146763899767
  0.5040401413289816  0.5125094313683176  0.7406032974034322
  0.7361080185277791  0.4909577783890337  0.7726290819808834
  0.9963032194749928  0.7504271534061591  0.7492492205788945
  0.2598534573933567  0.7317602871258433  0.7450865443153764
  0.5025281429439301  0.7384757137563974  0.7521243304510443
  0.7506272209113785  0.7642930431011478  0.7232547339257487
  0.1346823674246832  0.1186765329773351  0.1218777259093114
  0.3692236927104521  0.1246004729049729  0.1394676345952827
  0.6234644023081252  0.1246661259387454  0.1056123913102560
  0.8740252193367722  0.1133180566740662  0.1326307578730661
  0.1368547637767150  0.3699309377054587  0.1332992275346788
  0.3737017500855653  0.3861385928648609  0.1147264508862185
  0.6130647991381256  0.3867678366535539  0.1184672255837077
  0.8854923048715502  0.3631679070663379  0.1230926025307048
  0.1192871478062017  0.6338741877429632  0.1330618459235446
  0.3707608001353168  0.6307715253285325  0.1219029864591909
  0.6190960400484112  0.6264590705351849  0.1312026127357482
  0.8770985803192967  0.6252866863571506  0.1375949999813826
  0.1216000257485277  0.8769115849378101  0.1288566970047608
  0.3938397200395259  0.8460926528094488  0.1233276170529724
  0.6160318580134616  0.8820752340395467  0.1303922039011368
  0.8811187036059204  0.8646121342927124  0.1211661973121384
  0.1241877812532852  0.1332217715544763  0.3590313440574348
  0.3983559277896535  0.1148652557474546  0.3615457556044372
  0.6243513098903886  0.1337613905233885  0.3900842725139785
  0.8885545391485109  0.1193895539525387  0.3680858780671090
  0.1293280447265884  0.3773447477570032  0.3671816267261898
  0.3899849658327440  0.3754516343752339  0.3618024727682738
  0.6179680708382818  0.3767943249553725  0.3818948154802302
  0.8838910169818451  0.3856595667159489  0.3563253378213335
  0.1139679867100781  0.6341409617137451  0.3782968401188013
  0.3765485639341231  0.6228818244527877  0.3741800189627102
  0.6230509755666795  0.6109124921987110  0.3825986588128663
  0.8811917978656101  0.6408561075792212  0.3790754714201694
  0.1195218955398176  0.8815956543691779  0.3637583186724381
  0.3565914547691880  0.8829119395926863  0.3866795765059576
  0.6318352548071836  0.8819420670395972  0.3654338136124002
  0.8685107037769421  0.8747061311069290  0.3883366870652381
  0.1189801844025581  0.1272537427338677  0.6218885651050772
  0.3872185703719543  0.1157700226872845  0.6214980465099333
  0.6080017779895790  0.1324387141065339  0.6246140920143833
  0.8548226804604722  0.1282149712978639  0.6199728344673231
  0.1211913664166626  0.3839836533966418  0.6174685012355318
  0.3774511897795004  0.3696792102232952  0.6183945079975135
  0.6318305608875264  0.3718791443423489  0.6261656091058764
  0.8804559928712771  0.3747036976541265  0.6228575901481468
  0.1132555923726266  0.6413672192572966  0.6142956070478711
  0.3795507757092178  0.6205188569384303  0.6305082611527306
  0.6227737017011570  0.6281133892071726  0.6152651314990474
  0.8728822249493233  0.6392132419049545  0.6143005175376345
  0.1432610276298060  0.8611095812686178  0.6134662432434853
  0.3824901857419554  0.8792142438063285  0.6193050420949707
  0.6220874401176129  0.8736922367517082  0.6123867902381990
  0.8778758709752960  0.8676257283601689  0.6216797366282071
  0.1333683767902738  0.1279376866605698  0.8605273750324813
  0.3738577644556291  0.1217357544634443  0.8680330808874407
  0.6393888043272922  0.1181579945840506  0.8603381539940207
  0.8710247488670161  0.1229320189703773  0.8991147042696357
  0.1114314597980648  0.3627366190216714  0.8957483929312999
  0.3649954149608638  0.3750592441827303  0.8787965389404568
  0.6090413616292583  0.3822378306164332  0.8623296525872752
  0.8687027045431219  0.3877971322068227  0.8742831224866670
  0.1255744572530500  0.6314321921716772  0.8659027328611402
  0.3655609889284607  0.6165744844486467  0.8817254132834386
  0.6357291613344009  0.6358815357239915  0.8535186762451150
  0.8711382678421254  0.6271848349313172  0.8769308806341420
  0.1314467276089802  0.8947094213543072  0.8652281345020453
  0.3771875663032646  0.8651107086626586  0.8706902752234191
  0.6327405267585990  0.8673921916743061  0.8707350581939347
  0.8764892182874993  0.8534339152985795  0.8891934516992096
