generated by phonopy
   1.0
    15.9923497217343744   -0.0000000000015236   -0.0000000000010772
     7.9961748610645493   13.8497811253384029    0.0000000000003944
     7.9961748610645493    4.6165937083140518   13.0576988688087816
Na Cl
  64   64
Direct
  0.9914142431076434  0.0120908799234519  0.9895149996965656
  0.2578627682001199  0.0011695657029234  0.9903310562220532
  0.4678934718913009  0.0112637518264044  0.0081188032683103
  0.7543481762459507  0.9993139146355396  0.0071922430349095
  0.9877331838040357  0.2465490416786717  0.0131031985835093
  0.2509782696327050  0.2674157501102291  0.9955575416496037
  0.5021233779661015  0.2410148769385964  0.0142047368103552
  0.7561863461516970  0.2583714458772067  0.9976433938543522
  0.9964128289392461  0.5048066376160624  0.0108023106057598
  0.2408122958024171  0.4894204007445422  0.0085768984418971
  0.5206572082789890  0.4857728969474571  0.0064129547002000
  0.7501127161736744  0.5011461268375350  0.0000439512210066
  0.9793834797636617  0.7607314805330295  0.0114359634913047
  0.2531896047370028  0.7501210738418829  0.0056918173826441
  0.5158729852210991  0.7537311533697586  0.9893479939739805
  0.7509445307043717  0.7569564249609025  0.0114920592465391
  0.0034907329153719  0.0071935608567336  0.2483475367462626
  0.2508041762399251  0.0116239867074348  0.2446788070530709
  0.5048227021947173  0.9963979172791474  0.2340245392118734
  0.7451865734281574  0.0027332416808604  0.2478525380096402
  0.9900342789614487  0.2497987956533513  0.2560245649729695
  0.2330760041579696  0.2509118088541797  0.2565606830701663
  0.5017433121257872  0.2649127255707064  0.2549375162856362
  0.7486367063923730  0.2473078597569960  0.2508097990175143
  0.9856471350308070  0.4899462874616967  0.2742869856590066
  0.2492181454725387  0.4903563530141186  0.2668881066358297
  0.4877861169683132  0.5321198974343698  0.2317497602499881
  0.7507101412643096  0.4937040893391523  0.2422989643797142
  0.0044819098612747  0.7627011791168393  0.2508081387458914
  0.2599449639680558  0.7443352468461121  0.2395160301804756
  0.5074337460979994  0.7256822726854044  0.2661891635223545
  0.7451563292927114  0.7594871290870999  0.2440409186846624
  0.0102751480479958  0.0028131470730003  0.4879770680818262
  0.2509142565345001  0.0069531197607762  0.5056918293650148
  0.4957380030880508  0.9906233418974628  0.5172031825112554
  0.7442979022611755  0.0090059064891937  0.4931032313932918
  0.0054435834440575  0.2505255188962623  0.4886556617057728
  0.2517391443397445  0.2549574665985164  0.5029604179346961
  0.4917217456877030  0.2725917079952556  0.4834568977788726
  0.7311866804006588  0.2708934284779089  0.4964523836910281
  0.9918974106704322  0.5095188022712601  0.4942705031957939
  0.2598840135225912  0.4848399882761384  0.4950167447218187
  0.4944901751030444  0.5126086868612560  0.4987741248458336
  0.7270222573255137  0.5075366318323848  0.4992016774549477
  0.0161019398482195  0.7599718277359022  0.4895024547246971
  0.2383366553293460  0.7595850584174990  0.5054483749741299
  0.4980343071596769  0.7427697244548211  0.5115854452815695
  0.7507240810875242  0.7422609798813757  0.4987971931924078
  0.9985972886726108  0.0043223978891370  0.7572947174130644
  0.2467068659370836  0.9858272483752492  0.7571796701041729
  0.5023094831839012  0.0073151143216739  0.7322352984767484
  0.7588273229141337  0.0148007422031159  0.7361444659989191
  0.0125208893420815  0.2593941348829649  0.7385867938842097
  0.2467284724200905  0.2446422680934406  0.7435776551150447
  0.5112402757926457  0.2388593411983390  0.7377696863336090
  0.7473415239877229  0.2502314594809985  0.7499174268423148
  0.0005735693011135  0.5025918913299852  0.7528483025978753
  0.2576312894306150  0.4922645651513523  0.7532945289476688
  0.4958269254895132  0.4855442107809590  0.7582823637739373
  0.7398769455446195  0.5162776221001805  0.7520922587791192
  0.0009721513989486  0.7464597594578097  0.7591100734405365
  0.2412433790439687  0.7604314764493953  0.7526371095997881
  0.5084281105055706  0.7621116054177253  0.7367400971094467
  0.7373689052141696  0.7609810175773233  0.7437611097800981
  0.1362498831865611  0.1291367138179196  0.1207559979578842
  0.3754398631674789  0.1406105463837901  0.1268944174232395
  0.6332838744005058  0.1051662854815956  0.1372448865119123
  0.8743425484241927  0.1282589337395783  0.1245831700438288
  0.1141345821722907  0.3874906744073397  0.1297406102679305
  0.3654125473399936  0.3551735684212816  0.1343471800277240
  0.6311812560523810  0.3861447677091364  0.1188389324269399
  0.8709842308548804  0.3813437128813545  0.1264932215369825
  0.1315295208019502  0.6181500665963576  0.1280232917178039
  0.3818400720133255  0.6338160607251965  0.1176455196555813
  0.6229521818683316  0.6211238612897180  0.1207997082208977
  0.8645109682548013  0.6237523698698567  0.1395275761210237
  0.1172410055725990  0.8754955749927898  0.1314502489741185
  0.3899432074638184  0.8634409906932815  0.1212440804414237
  0.6291852226191259  0.8710929557454136  0.1276835053403856
  0.8891870461017657  0.8752462203142523  0.1128032871843101
  0.1459477532192314  0.1023143113554503  0.3641508394647257
  0.3725745809758453  0.1408504051168825  0.3719865492323395
  0.6279149888758900  0.1223502702860026  0.3871339354621415
  0.8706396266731560  0.1223534657543126  0.3606058219037922
  0.1239576171545355  0.3827177500561938  0.3791647928637720
  0.3660812057228883  0.3656447415289291  0.3914941627943385
  0.5982094474137258  0.3914044097482767  0.3746626460795585
  0.8690125733536151  0.3821290295204482  0.3748055137258355
  0.1407097026985570  0.6222771334073065  0.3618900992769664
  0.3807178791554690  0.6290628068888604  0.3622374602246364
  0.6125876117054405  0.6251138377518454  0.3774181300575997
  0.8927493042525710  0.6214826523237026  0.3707200126153504
  0.1462801772942708  0.8710896285719802  0.3598902860593984
  0.3659642396931041  0.8639860179190201  0.3870342546882005
  0.6525668869984863  0.8518752548724239  0.3603111982239363
  0.8651008812664933  0.8658498303600166  0.3891984101184548
  0.1233707385101602  0.1158573312549057  0.6399868204610489
  0.3843449195393922  0.1177143002000891  0.6241204934677445
  0.6169301881056410  0.1158485208791441  0.6454477495364755
  0.8854333780515006  0.1230280647716298  0.6300816704855082
  0.1234750422914215  0.3797542583994600  0.6313498846344414
  0.3780231228692070  0.3648859502167426  0.6407500803774572
  0.6127583639052471  0.3725559544991761  0.6307774901942698
  0.8630369660069204  0.3690909061735087  0.6283908155723684
  0.1207515677019111  0.6351807087118914  0.6153819847224287
  0.3815022358874146  0.6323634936145814  0.6323009328400907
  0.6344791770187016  0.6224505662717124  0.6322536024745556
  0.8718758173807937  0.6146805863893506  0.6276329074963897
  0.1295928853510517  0.8749079109906712  0.6061691265032693
  0.3783668692352792  0.8681652292961572  0.6414657702809091
  0.6155874983144487  0.8843982975670258  0.6297871808940847
  0.8711074697476014  0.8847831280632095  0.6293268567141963
  0.1234047176822939  0.1329075312084559  0.8607096725428479
  0.3633331553751938  0.1276352218792151  0.8892854523439121
  0.6225586331610484  0.1287685732577614  0.8697702005909769
  0.8626081172391984  0.1185131567716913  0.8873861666545030
  0.1469533852640427  0.3528825582467641  0.8778597742916582
  0.3664243311825353  0.3869505610245556  0.8697212349170906
  0.6087035451575178  0.3744487421300868  0.8941817652497285
  0.8835126220445488  0.3678942891952943  0.8663743401551143
  0.1207416628363568  0.6204234492070329  0.8898528141882548
  0.3667363327333736  0.6221724129692927  0.8899809799110586
  0.6330170950570758  0.6193233381128207  0.8698037369651113
  0.8607762346270790  0.6268543925892303  0.8807256550278186
  0.1136158817829350  0.8853849173784181  0.8830068639582274
  0.3768160530026110  0.8799213578070605  0.8870313469661664
  0.6159286074541289  0.8793778563523582  0.8872852705257877
  0.8761598127819539  0.8886158125215636  0.8590878221073618
