generated by phonopy
   1.0
    15.9923497217343744   -0.0000000000015236   -0.0000000000010772
     7.9961748610645493   13.8497811253384029    0.0000000000003944
     7.9961748610645493    4.6165937083140518   13.0576988688087816
Na Cl
  64   64
Direct
  0.0090282017887022  0.0018807877325494  0.9899390044540058
  0.2611854240313553  0.0113533232557295  0.9768040925285248
  0.4861591269290032  0.0041653545511000  0.0048537680710301
  0.7236207911979676  0.0058396736986854  0.0051411213046236
  0.9995693062129642  0.2452153155047691  0.0021744905105552
  0.2538324613443036  0.2597061547082264  0.0148275815972398
  0.5149168971367281  0.2542057322912916  0.9979291832458819
  0.7526458783376108  0.2586649711489161  0.9978390835187505
  0.9851307317341922  0.4912231725647728  0.9967447780792894
  0.2601648889218449  0.5129649468248534  0.9931512242127695
  0.5268939518760292  0.4870662503008865  0.9920140213144646
  0.7459045780542133  0.5053323794556358  0.0125398023333870
  0.9782987859664530  0.7520062558934906  0.0188638524053154
  0.2395754637406804  0.7652490881879910  0.9987805101657622
  0.4860793381919709  0.7425057006685325  0.9896860417664202
  0.7572326779593793  0.7578163496428849  0.9899904750140237
  0.0094451400607912  0.9838031697797230  0.2419323614559506
  0.2423672989010668  0.9957513528234044  0.2537075652709085
  0.5008931132253276  0.9915486995859423  0.2442913222801507
  0.7455758995877407  0.9960784520296438  0.2467478883604539
  0.0048985210884022  0.2593252049346766  0.2505727456377598
  0.2512359870331148  0.2180401626014506  0.2655702455296298
  0.4964568121445501  0.2653586465230621  0.2593208730174399
  0.7497750257755391  0.2519952951443327  0.2580093648502376
  0.9984409546553192  0.4969660416713128  0.2423506888518799
  0.2370725649267006  0.5054648076273212  0.2449800273134712
  0.4917767429403206  0.4892283884769877  0.2574274067662238
  0.7449911003499264  0.5130999499517307  0.2465428303363302
  0.0136596186946651  0.7209372048376863  0.2679198401338166
  0.2455154098052318  0.7705482194923289  0.2357468053400543
  0.4950114296388197  0.7369297494838820  0.2842695651455018
  0.7634829920887126  0.7472809619838960  0.2444117359794939
  0.9750195226939832  0.0208094880793513  0.5087240351109719
  0.2570963178296641  0.0151881110637679  0.5042299695444722
  0.4902591393245470  0.0011133290988053  0.4996826534296029
  0.7685174714516358  0.9997356778070826  0.5087686540371262
  0.9871502002947307  0.2625888642184272  0.4974591761690268
  0.2565625312631394  0.2254613577428774  0.5036759212555147
  0.5086555818220542  0.2697927404139303  0.4806272905327381
  0.7306044064285574  0.2678134194595009  0.4969102258083481
  0.0140791895900317  0.4975677775527177  0.4987719849940774
  0.2395373766709770  0.5036693279437588  0.4943322843007816
  0.5093116327224294  0.5111763960097824  0.4928449736388956
  0.7588392677218981  0.5180195043056370  0.4971778469298178
  0.9843688918146251  0.7589849251011415  0.4947064075888344
  0.2332997428448552  0.7557077344694219  0.5068412765347372
  0.4874956374895648  0.7483451851273462  0.5019526289228404
  0.7579752493162827  0.7393444144745075  0.4879844891636124
  0.0215916970518808  0.9863528626234217  0.7412830036761191
  0.2444181184907990  0.9997947270136512  0.7504537585538047
  0.5063498380321978  0.0002691481894075  0.7416199593610290
  0.7455263222341024  0.0047981264168728  0.7505233653952332
  0.9843392003556972  0.2546591984481789  0.7535860757258241
  0.2595294148727016  0.2322684109789534  0.7384627706382449
  0.5031312992647821  0.2524545949444824  0.7487753657344717
  0.7616215567849378  0.2355759064065581  0.7544701444745264
  0.0182187454170255  0.4972415704048914  0.7490807085010948
  0.2674560855901470  0.4863961862859021  0.7424797110289194
  0.5030385665305795  0.4951832815666988  0.7478540007147892
  0.7374558818105935  0.5100230562429748  0.7593961679545830
  0.0037647308580896  0.7441544226648213  0.7701275189591548
  0.2571800278264170  0.7502098416241215  0.7496147969415521
  0.5016683587619386  0.7415971774747103  0.7523414464492441
  0.7535864255956096  0.7490893965248625  0.7367797964164089
  0.1192343744811220  0.1200174509686260  0.1290784752864664
  0.3787825082488172  0.1149928518082112  0.1115385536288625
  0.6188279564949050  0.1318971510368115  0.1158883055158405
  0.8932191541108621  0.1055328704196352  0.1383335648017059
  0.1248039936499427  0.3556955918737637  0.1361175108696096
  0.3716444515155529  0.3638479800054471  0.1285998486054314
  0.6408016283740573  0.3659912534768163  0.1367670694968048
  0.8768860073089191  0.3941980492871129  0.1155359034135041
  0.0884661441481353  0.6224770115717069  0.1352798096173424
  0.3876474515275406  0.6214481009872588  0.1218962637784603
  0.6121766742882215  0.6315375285748335  0.1394677875131597
  0.8880212270371705  0.6228941138453012  0.1137549008437532
  0.1120742502663190  0.8712487446955829  0.1294362203850999
  0.3616020181334988  0.8727705034080515  0.1404575313595504
  0.6145707850092615  0.8732761658715908  0.1344099191518038
  0.8701764272779183  0.8832211782240726  0.1199940386993198
  0.1156833999504031  0.1217072787450613  0.3888126485246046
  0.3664318293983267  0.1271622338667084  0.3690807937330661
  0.6311370716923672  0.1224073528084849  0.3710285184426264
  0.8837056240981095  0.1258691186259827  0.3657332045641590
  0.1301783371901402  0.3850402421004278  0.3628817591615409
  0.3715670562764721  0.3695374665462403  0.3785999304849666
  0.6206850008197196  0.3921172602337859  0.3694798038351423
  0.8854901050736520  0.3772430968324188  0.3685151818854840
  0.1083436028813787  0.6418766879793720  0.3960976185641365
  0.3709057789097408  0.6291552781944455  0.3590188207679497
  0.6125669620445076  0.6240715666189509  0.3765245296180471
  0.8753402034765601  0.6193346889269574  0.3797403343881039
  0.1158161112829922  0.8950739335348811  0.3641314896472891
  0.3575981654672462  0.8724342564417951  0.3824761584691972
  0.6248328481647122  0.8709963630258540  0.3738087202333305
  0.8846079534389056  0.8677512257168470  0.3735822367312906
  0.1392831839971057  0.1281424614288309  0.6263608277489765
  0.3819900292792082  0.1222732635384872  0.6178638373144185
  0.6248621389868383  0.1297713024945673  0.6401783375500336
  0.8794725603983866  0.1341881628273759  0.6251106554935334
  0.1289891790434348  0.3719292395484985  0.6324363113796609
  0.3650944387009424  0.3857591726080273  0.6308200578526186
  0.6267083588884149  0.3850326942302966  0.6043243663078991
  0.8897368942091772  0.3820713341934073  0.6217346780816984
  0.1196013118758165  0.6285120969747078  0.6171635207929862
  0.3698128779714026  0.6251078341136065  0.6225290907362884
  0.5999316452006791  0.6210723681942736  0.6406162429990335
  0.8691893690308915  0.6329426818501730  0.6142635490700870
  0.1135156203609859  0.9036347127081497  0.6110955459721593
  0.3742820528588617  0.8740489141621718  0.6270098956695468
  0.6054002400619791  0.8750872744696080  0.6470995707348310
  0.8786653511039838  0.8783148446563930  0.6204190223023538
  0.1220183883617640  0.1192961638619723  0.8709825232555753
  0.3877818860082877  0.1270227881399273  0.8654204526981225
  0.6152737114829330  0.1355023543680578  0.8752497477211509
  0.8966667504572685  0.1061639695791303  0.8582626030621706
  0.1249807471893176  0.3721531521138496  0.8692308147300255
  0.3725008175109660  0.3642175434640906  0.8874220407321647
  0.6310759313070990  0.3532572538148666  0.8752537743505746
  0.8744402644739415  0.3825652983914864  0.8865749179127430
  0.1235277182435918  0.6357760691024648  0.8860523998066550
  0.3655305433853334  0.6191743740648161  0.8817301640082541
  0.6274964063576911  0.6140832698871663  0.8707648452271162
  0.9027571538639985  0.6170394158637115  0.8652830902202662
  0.1425175970784312  0.8623709851356273  0.8765461047329580
  0.3876142107380710  0.8833457364166827  0.8605023216064426
  0.6151721570877196  0.8683201773542317  0.8915656404904281
  0.8860700289964872  0.8668841276817016  0.8761668385827320
