generated by phonopy
   1.0
    15.9923497217343744   -0.0000000000015236   -0.0000000000010772
     7.9961748610645493   13.8497811253384029    0.0000000000003944
     7.9961748610645493    4.6165937083140518   13.0576988688087816
Na Cl
  64   64
Direct
  0.0040001801745767  0.0004806962686816  0.0041630177610942
  0.2599832350784910  0.0025008930813040  0.9726973459788109
  0.4769580980639065  0.0237793794863469  0.0009713311502222
  0.7497753161757197  0.9915212413434191  0.9982693944268813
  0.9817826539369097  0.2677583118509165  0.0012006802220286
  0.2390504503498277  0.2449024695170222  0.0042717731840204
  0.4877997006517001  0.2639263747966040  0.0059543151846143
  0.7541055511438138  0.2634737038373168  0.9874505501461728
  0.9985019195213316  0.4991887063031993  0.0224991679730891
  0.2654485147955384  0.4876438416328399  0.0023425991818672
  0.5014591615965499  0.4969454288095735  0.0071913979924578
  0.7385177094442300  0.5082743537994248  0.9945346243237444
  0.0013985486560885  0.7573643490348068  0.0121314705172452
  0.2390224925240588  0.7415038305998540  0.0121352512405966
  0.5079394936804166  0.7540788023347966  0.0020014740597809
  0.7509173399096630  0.7628444251260778  0.0029321655008885
  0.9946708908081413  0.9893019328567525  0.2661954354376992
  0.2520585294369170  0.9805566686132329  0.2478986311953691
  0.5065435077605626  0.9856597254011422  0.2451246448316904
  0.7489982759533003  0.9990388318575018  0.2554192344183954
  0.9996147314955343  0.2480931540549354  0.2541989434770678
  0.2631466847674667  0.2556959007276408  0.2477096897455648
  0.5044902871641566  0.2407980340508642  0.2634218554761049
  0.7406934018753200  0.2582272113763522  0.2595559106485644
  0.9988816503593668  0.5074708808453321  0.2478522622724596
  0.2325494123924490  0.5042048324925036  0.2732317267725816
  0.5019868149858109  0.4987503024445687  0.2611993356283708
  0.7629797723952061  0.5016778974889320  0.2549327387431344
  0.9779892901218222  0.7413660400675273  0.2640605911693188
  0.2680618450868184  0.7527961032579640  0.2465564828216389
  0.4948959775441295  0.7513943171100624  0.2387519314980946
  0.7488696302481732  0.7519208875993029  0.2519678980297048
  0.0045476576489107  0.0073987773133022  0.4871080277940383
  0.2542218134581965  0.0043724045713518  0.4961028293988733
  0.5041157540026671  0.0007544838093260  0.4921342335958537
  0.7467731271541520  0.0391565600064797  0.4873316793197453
  0.0115781911666203  0.2258663986663472  0.5130422060326552
  0.2568209336189698  0.2461648915895197  0.4842439387076369
  0.4991827585302776  0.2511383601895495  0.4989185435137513
  0.7615752355081600  0.2413945707212063  0.4939475874261874
  0.0273857945344314  0.4794580698252563  0.4961962796251795
  0.2380962589501599  0.5123993547353431  0.5067377334432045
  0.5170044047058371  0.5057446655650466  0.4870747932615380
  0.7548697125270620  0.4945733013697532  0.4933729910826933
  0.0130008275004868  0.7454803392048220  0.5046174189408701
  0.2587747649843359  0.7425505823618830  0.5040956531565054
  0.5057429429291105  0.7401062028589269  0.5019868842392368
  0.7490669090093928  0.7461284276640178  0.4967803303447008
  0.9966883075166435  0.9920894570001100  0.7529446970639155
  0.2470466449367988  0.0002286745468237  0.7410347232426565
  0.4934820338131828  0.9753070956047586  0.7635979141652932
  0.7306950892182444  0.0156474482348028  0.7416060364164883
  0.9979461931446671  0.2375277899347638  0.7606031715876275
  0.2609686359878637  0.2589165666266579  0.7312378939011520
  0.4951413409255883  0.2607214232632734  0.7515862413964598
  0.7419069388490012  0.2621142857022980  0.7561961234259559
  0.9992182106742771  0.5072424082249409  0.7611556798566147
  0.2437285598286774  0.5186715603345071  0.7371901789297616
  0.4872514603894668  0.4950937781222834  0.7517666368480747
  0.7434959115991254  0.5018457954404092  0.7400128352595273
  0.9983317005208465  0.7442451082208978  0.7477448764060109
  0.2467440183550725  0.7413826223746136  0.7741016834264590
  0.4930877956921579  0.7385798657881750  0.7670493265849804
  0.7430181768606051  0.7710968919872909  0.7476928047303786
  0.1258266651942818  0.1283171399689309  0.1248627314018793
  0.3670411944635396  0.1251059959223154  0.1315353848614057
  0.6253968400279363  0.1234903486310791  0.1358203514918062
  0.8691803018347546  0.1441286585559761  0.1117325927216513
  0.1440090496350560  0.3635028215262214  0.1143631590909819
  0.3748572815282384  0.3688251656360613  0.1187831676133833
  0.6349495426190267  0.3731912422629968  0.1145360704107146
  0.8762062389823762  0.3771083775139598  0.1288402266652028
  0.1368145588057343  0.6217796850170405  0.1235810969795709
  0.3827099411061253  0.5997160258071459  0.1430653563298596
  0.6163897526654947  0.6117518017703724  0.1472126135642291
  0.8839744419405906  0.6119955750756074  0.1224693643226379
  0.1439232657689996  0.8675280300477378  0.1215928233558862
  0.3789123860293558  0.8778518733529099  0.1225020813308280
  0.6100790491556469  0.8689174888124656  0.1289904393800967
  0.8626510718558102  0.8764105188658289  0.1275913760278384
  0.1119968868646070  0.1343733170567246  0.3769797350431529
  0.3742212496045996  0.1014085201736014  0.3822667762356101
  0.6270982979732935  0.1248125427451157  0.3667998187441877
  0.8645883223712457  0.1282799811203049  0.3811360495235441
  0.1387506334925791  0.3743373733363914  0.3496368559171512
  0.3901581895568391  0.3658835032216416  0.3727281776881682
  0.6366711734288226  0.3681541706054717  0.3675954230741079
  0.8704892549511973  0.3842321243105156  0.3718789098816845
  0.1138949669407453  0.6067818798105752  0.3906929450088903
  0.3777276480410252  0.6275413049879182  0.3829845094186152
  0.6242858885775836  0.6380011000593773  0.3659067983084509
  0.8783942967996117  0.6208398082360080  0.3683260418706737
  0.1253583276045331  0.8803745539394563  0.3713245668834583
  0.3658466791180598  0.8824392324694150  0.3737890066653478
  0.6266219261854094  0.8754906559426557  0.3724806813867723
  0.8750521202875462  0.8864976790025079  0.3808433955172459
  0.1227077494223318  0.1346609189470444  0.6112860770831874
  0.3609124881024393  0.1281595619438076  0.6434553551183358
  0.6183206680493539  0.1090486479857963  0.6344533278584815
  0.8849639248745554  0.1114260946327975  0.6272736402086952
  0.1273457636410298  0.3652137447530564  0.6288852030654222
  0.3709936697152216  0.3689667061146191  0.6226662838918323
  0.6216762024240838  0.3703109875333945  0.6333786301427254
  0.8692322914882520  0.3594794729574052  0.6331943601058523
  0.1236826168037904  0.6251534307259123  0.6166869020149811
  0.3710572083587440  0.6248735713035585  0.6275943861706165
  0.6232890215861273  0.6219911571832497  0.6295458262710762
  0.8758490627431514  0.6307592010208261  0.6310416227340032
  0.1166706226629897  0.8556840677144586  0.6301871758329421
  0.3772356061446968  0.8710095919282781  0.6087507762693738
  0.6264364937952064  0.8747326806299729  0.6211225926081062
  0.8701305986304154  0.8638937761477559  0.6370586062896517
  0.1291361076208485  0.1288782820023656  0.8691404431171911
  0.3935142243302731  0.1148985960529993  0.8713806905975584
  0.6262289756611392  0.1183636363236969  0.8898849840015031
  0.8715841257986072  0.1305923981127587  0.8680153424136153
  0.1248901272229256  0.3733060260998676  0.8722107565118286
  0.3865780278098404  0.3722203117465852  0.8689694193061887
  0.6226737762764145  0.3773109267064443  0.8782872368190174
  0.8687184462482520  0.3653455185549306  0.8886309238856903
  0.1120253896294668  0.6327836463556213  0.8716429744286160
  0.3853170253777700  0.6102004693207730  0.8850132748975185
  0.6228836255268907  0.6147226427568491  0.8873778851243608
  0.8779340249490917  0.6085417249417064  0.8813952356264030
  0.1248762465076701  0.8734201696664978  0.8823235218918226
  0.3765508370982679  0.8819338392147135  0.8735424582550904
  0.6209219263957670  0.8715460867678549  0.8850351729658537
  0.8838090359353390  0.8668042634079900  0.8748658523905051
