generated by phonopy
   1.0
    15.9923497217343744   -0.0000000000015236   -0.0000000000010772
     7.9961748610645493   13.8497811253384029    0.0000000000003944
     7.9961748610645493    4.6165937083140518   13.0576988688087816
Na Cl
  64   64
Direct
  0.0040892538134705  0.9900089847369105  0.0140442392270001
  0.2741259412929104  0.9992811572431749  0.9976223315563960
  0.4828761259270633  0.0137861485474408  0.0054838570570808
  0.7492617748065104  0.9870255059641168  0.9970746342093718
  0.0047939485789196  0.2484859976494189  0.0063411380741853
  0.2533524604038311  0.2423287454307967  0.0091134912692235
  0.4989383993344329  0.2503394185780043  0.9989501129246224
  0.7563576576692955  0.2537974872111460  0.9775228818719475
  0.0107510633850593  0.4906714614834493  0.0062480110866056
  0.2666740350195093  0.4911046281982716  0.0140141212521436
  0.4871209276073587  0.5069115870677273  0.9850938437194897
  0.7588821249192750  0.5066305182355613  0.9814655715035240
  0.9856023659134934  0.7662869788552720  0.9878926665427035
  0.2455426380583632  0.7582444152130919  0.0010306973795093
  0.4998755339503076  0.7455287102771534  0.9961727105866717
  0.7500010664952620  0.7364784565655357  0.0090304140673955
  0.0023590252744563  0.0055851745381876  0.2405414695101387
  0.2499016543518676  0.0095672140107769  0.2498218260835383
  0.5282795405995093  0.9764435900158723  0.2498528544689641
  0.7569418887165863  0.0104515057457527  0.2303347860207825
  0.9704037887936352  0.2585489625833333  0.2619049740343000
  0.2387226758397482  0.2492352238040294  0.2783863099857565
  0.5133080551957061  0.2634920955138716  0.2356831013498138
  0.7339445534207333  0.2671377060945025  0.2615763055854235
  0.9878800877040714  0.4913153020086566  0.2700912340573435
  0.2496352679364612  0.4819133112578100  0.2643177568161882
  0.4877421847693735  0.5106421035101801  0.2465270575419415
  0.7496694036269331  0.5142346371643389  0.2480673523940731
  0.9921824809542422  0.7576126893700798  0.2510364789448506
  0.2544752005478790  0.7455533477919639  0.2622543891027208
  0.5030263827032366  0.7566684878512420  0.2281291213749524
  0.7410384202740732  0.7565372934054478  0.2639674413581752
  0.9848798587631187  0.0030221167010651  0.5098453459617709
  0.2643225974986037  0.0089983098855165  0.4919368913627855
  0.4998524189132955  0.9930640340230525  0.5129290353912995
  0.7514569036298160  0.9954030825788172  0.5111582794605378
  0.9990478948061510  0.2511958394687344  0.5158047154246026
  0.2696631283598726  0.2344861500884017  0.5130306949682274
  0.4984626103234614  0.2452058776481401  0.5015680715572790
  0.7542476348663472  0.2426503655332155  0.4994415522908007
  0.9902791689456496  0.4888354577186290  0.5035602434456697
  0.2574644044936726  0.4930635326705769  0.5039312430437169
  0.5000654651420986  0.4763688058251300  0.4996589888530875
  0.7394185767361716  0.4909824356283682  0.5111136981932671
  0.0223637882856372  0.7377189256943119  0.4954090943373752
  0.2545769916561901  0.7615189849550624  0.4775012588275549
  0.4957110440039610  0.7435756704701342  0.5047480824174418
  0.7369037266092013  0.7498849658209373  0.5085961678062665
  0.9986234947261432  0.9773467925508602  0.7506247833633400
  0.2243811662370206  0.9963800759594634  0.7738325205732516
  0.4892450769366091  0.0094540142884163  0.7593440628994900
  0.7334422037460797  0.9851464064387686  0.7588337148882368
  0.0035679640144451  0.2621099327979740  0.7522317906367225
  0.2352185923782770  0.2694919021097179  0.7526331591261793
  0.4816582761543134  0.2562218707803703  0.7701979091124247
  0.7471444965682286  0.2736203988981729  0.7423676867010568
  0.0205034834233900  0.4869094357437539  0.7411613403866559
  0.2489885673414479  0.4974896427942417  0.7524111132381892
  0.5006214610137493  0.5014775808754380  0.7412123869989735
  0.7603906711999916  0.4920550331443762  0.7494096204845302
  0.0184290865861318  0.7263321942376111  0.7571387531600815
  0.2407922598666173  0.7610828096442647  0.7551674922208871
  0.5087812757932089  0.7250008491918447  0.7628126523333344
  0.7358287829801189  0.7641262528095794  0.7349872907704736
  0.1295748305561022  0.1449487329269487  0.1132962179633985
  0.3802800198871928  0.1327844832814652  0.1208036318768184
  0.6064724592617389  0.1323684915284677  0.1482488467278260
  0.8765664603149671  0.1209075674728372  0.1299129689721261
  0.1349801534274976  0.3734339626423036  0.1060080012719087
  0.3873869367680638  0.3650833082508166  0.1164180107621869
  0.6283403096685281  0.3747661091354462  0.1322114245285587
  0.8564508390249000  0.3733215967360161  0.1404726964765507
  0.1206065255398088  0.6407201689951221  0.1206035083071989
  0.3706889853217559  0.6540206091321765  0.1045077855964287
  0.6381061760230742  0.6002648038972416  0.1398829344454708
  0.8648559179928229  0.6330421662630293  0.1317031180850904
  0.1347864475141079  0.8765524877740131  0.1217028628895736
  0.3546866828454044  0.8740634112411645  0.1361250038456197
  0.6230063271057211  0.8824247150851838  0.1188497587844520
  0.8762158214415041  0.8828846216282269  0.1176714032887550
  0.1165029411911997  0.1196368350474329  0.3807335223102788
  0.3857321702579375  0.1434355661006569  0.3488421120355884
  0.6465361528465643  0.1164856336786805  0.3725753281384125
  0.8855513786232899  0.1146439857277094  0.3733982626875113
  0.1114844858683227  0.3919920135848480  0.3613932245860402
  0.3666510901360466  0.3727854392190893  0.3720705810297255
  0.6460837411005798  0.3785157999446996  0.3599806411251490
  0.8786261841769070  0.3739523401779005  0.3575208155546316
  0.1235752955547593  0.6412734535202304  0.3608430682853083
  0.3907148319654501  0.6258664742886964  0.3677738314491952
  0.6091091502722339  0.6450323073225045  0.3771666026868864
  0.8640058284579274  0.6270541065689943  0.3737418570339084
  0.1214590791128167  0.8746910541972207  0.3827015080680575
  0.3701199749439326  0.8739281161714639  0.3643833294155328
  0.6228936094508264  0.8683425955649182  0.3758841454929329
  0.8795282800671864  0.8916273546441802  0.3624145288565251
  0.1249851374101378  0.1216740473370894  0.6189619040772009
  0.3722111586727883  0.1287960947062621  0.6240267778461862
  0.6226121765717976  0.1200004326212958  0.6345986905660583
  0.8762719201480111  0.1086387260124431  0.6358320862271605
  0.1213719584971615  0.3852790679982725  0.6340603140772172
  0.3715850841644038  0.3711659927544694  0.6356771073815437
  0.6222882176427524  0.3913499025456220  0.6216001745405055
  0.8768171570254906  0.3530458553543426  0.6372898169797087
  0.1158430178409459  0.6203608881732057  0.6400962035319814
  0.3872844399821743  0.6183301081246879  0.6083364658206818
  0.6091130194901115  0.6297466918336273  0.6185835555768879
  0.8850052308480260  0.6173942398437111  0.6309094537581008
  0.1378503492475826  0.8655936236134936  0.6266521407282520
  0.3770108192733120  0.8805610713670391  0.6318377776824005
  0.6157187666982410  0.8854468048333882  0.6296729324099275
  0.8751428806946491  0.8676431695478845  0.6317159335161940
  0.1219579319189231  0.1172177854307535  0.8793970394583327
  0.3740450040582524  0.1343786736481000  0.8657318117561740
  0.6217654844781154  0.1252705009727945  0.8881202900092996
  0.8737739448999085  0.1113998116688266  0.8681139179564769
  0.1247232506219756  0.3832826881415931  0.8683923603001543
  0.3712072360190893  0.3703596832577479  0.8740829920699800
  0.6069648669556120  0.3787758481538600  0.8871126844418380
  0.8625578322848224  0.3805363693913993  0.8889608887129933
  0.1175650632181047  0.6130426489659937  0.8752168335565971
  0.3793417548386392  0.6194504948477939  0.8606871422617933
  0.6406703346225644  0.6243298730841089  0.8704959562566777
  0.8820479294170278  0.6192623434371247  0.8763079096044207
  0.1238734924720457  0.8673536834999547  0.8813660636882663
  0.3824373056261030  0.8723420692274075  0.8808440562594204
  0.6291862076409762  0.8684633776923653  0.8725846789525207
  0.8634487679267817  0.8680238292895108  0.8756985072547298
