generated by phonopy
   1.0
    15.9923497217343744   -0.0000000000015236   -0.0000000000010772
     7.9961748610645493   13.8497811253384029    0.0000000000003944
     7.9961748610645493    4.6165937083140518   13.0576988688087816
Na Cl
  64   64
Direct
  0.0078226723176431  0.9913620123696971  0.9894649841387450
  0.2477036286169683  0.0014806888852058  0.9940543166872324
  0.5188721868046587  0.9967140646742438  0.9991610366046569
  0.7522239508791565  0.9835464687126751  0.0009157508509178
  0.9953913738120101  0.2426722601559244  0.0122619254435036
  0.2616052447183169  0.2543886559370085  0.0025904371234824
  0.5024200335878032  0.2691472008258801  0.9882187924465690
  0.7501705288138563  0.2572466413972337  0.9937707093710549
  0.0041486092924472  0.4760181288372385  0.0137073896716610
  0.2619988387764772  0.4998592372164165  0.9896207538208487
  0.4969707202533816  0.5159969915264958  0.0063113761469227
  0.7381160234057201  0.5048517527552692  0.9988850984338724
  0.0063426378121552  0.7541020119192428  0.9953671277946373
  0.2451726417613486  0.7625746387729514  0.9962487278896105
  0.4898483852710883  0.7494852155641795  0.0084282805235257
  0.7455032111026175  0.7562389202977488  0.0080557554555312
  0.0047086406353684  0.9932524237770105  0.2443095617312024
  0.2407341595225396  0.0070858385282576  0.2682746449868346
  0.5052450851964493  0.0080672329471231  0.2540013935495681
  0.7663361601674017  0.9988297355355057  0.2363923938083190
  0.9925619558302210  0.2546711416505514  0.2595963328919118
  0.2492557772622530  0.2400300727210968  0.2585344346307643
  0.5041745450206903  0.2496960903821004  0.2273082376657125
  0.7325833287939842  0.2497925753168786  0.2562830195806046
  0.0074268743613377  0.5028488447859006  0.2461658101674363
  0.2630870477960842  0.4929916949812306  0.2515598811787452
  0.5076163564344175  0.5007643996447312  0.2397748414062960
  0.7397646303838035  0.5010397686955455  0.2604956406488997
  0.0006480276825323  0.7474925959876387  0.2457399127659651
  0.2468027926617625  0.7660906399260776  0.2522276343230974
  0.4896021725990179  0.7352906514581685  0.2704307482637630
  0.7649105849732238  0.7467142052703166  0.2426059162075884
  0.9882535573434650  0.0004713792671706  0.4935563527417237
  0.2566982984000271  0.0136668301883558  0.4973801578527369
  0.5126608439668726  0.9928125133048602  0.4885560106024665
  0.7520516291727486  0.0197959418834590  0.4875786610924234
  0.9935375951918457  0.2602658370554392  0.5074830192324913
  0.2621159586553987  0.2510406409112867  0.4982358389380140
  0.5200474991692871  0.2355567545576883  0.5050448549358399
  0.7447801123370170  0.2459362445810451  0.4861915578582121
  0.9868776147138401  0.5102440548842881  0.5005018492293103
  0.2591009400851719  0.5076598881875546  0.5066372293092002
  0.4974372704454622  0.4994215368383643  0.5101139028493572
  0.7501263973297940  0.5027911553486082  0.5016713048189325
  0.9978155515445679  0.7506878140958192  0.5113570396075103
  0.2532026949902980  0.7447977283082194  0.5104521423597359
  0.4829711536272613  0.7662495432769789  0.4905781755066999
  0.7647042719460148  0.7286812446923793  0.5017442688996201
  0.9911514743198288  0.9950164469075924  0.7514386362737350
  0.2337630592427407  0.0239179047171402  0.7538819666840655
  0.4801413294588009  0.0056218460982022  0.7582778298729765
  0.7595531465029169  0.0001803205514508  0.7451029829872392
  0.0114418242193826  0.2506599610804167  0.7457180067093818
  0.2400632863674001  0.2469710948094177  0.7674911097574800
  0.5012181999441310  0.2515240090950174  0.7411901191889023
  0.7495633697777455  0.2645104322610711  0.7509531713676755
  0.0076026142126946  0.4894883365309576  0.7461671881401042
  0.2522475473816929  0.4974206082640310  0.7486417343387143
  0.4883947468540161  0.4965137856369306  0.7475304487383371
  0.7544596195539369  0.5073507318084584  0.7461965746197395
  0.9851734691496765  0.7531180125226351  0.7601702850403148
  0.2345361860556038  0.7672832469208269  0.7360679271775434
  0.5140019846207793  0.7213240131196261  0.7608141195176985
  0.7408836968717258  0.7513781230939549  0.7574661332187763
  0.1182488968867592  0.1217275568332200  0.1278829002677272
  0.3916814240940997  0.1192489730067058  0.1201662076826415
  0.6064844229840120  0.1244996926784936  0.1319544329113641
  0.8735054728605376  0.1026667509666338  0.1343343760084044
  0.1263956599864715  0.3874795250633092  0.1195260181284063
  0.3651074982660028  0.3861389556721264  0.1184869925017700
  0.6313851377242873  0.3580619512657893  0.1173667971526577
  0.8580592826424088  0.3884020275523932  0.1244362503412539
  0.1216026485465856  0.6225600124821671  0.1300860857039341
  0.3887302849629100  0.6101088797913309  0.1331718794660499
  0.6293566660287616  0.6269014996969723  0.1261366339496547
  0.8667410311145752  0.6108909898450845  0.1385782790533120
  0.1354395779424891  0.8685513266906540  0.1287620359883964
  0.3897224617578857  0.8788896011040784  0.1238371429166604
  0.6284678511771894  0.8769444001140364  0.1160452523232506
  0.8652311687443263  0.8810270855286728  0.1298080456255681
  0.1162445124384890  0.1218867467539160  0.3803604283649550
  0.3781717785070213  0.1189929834199401  0.3823546372564208
  0.6192101377956754  0.1200410455621517  0.3796535920072156
  0.8846667621572805  0.1295632492715361  0.3641631265303230
  0.1287433380630103  0.3727811501036199  0.3641523481022941
  0.3905649540782405  0.3464563458460643  0.3829012598988822
  0.6237912496561417  0.3775267489597711  0.3816631939660253
  0.8726328177867391  0.3766677860109314  0.3738135220258698
  0.1379951454381839  0.6049550269957027  0.3772490933231268
  0.3701005531063731  0.6305878361515114  0.3714340794781159
  0.6269468162707350  0.6013862740552773  0.3816219917273846
  0.8722598661401314  0.6256622496092548  0.3626888612469426
  0.1302503617385090  0.8807078632775273  0.3676809355501977
  0.3849289084780840  0.8737685747845343  0.3551455672646779
  0.6132447340176745  0.8936735325904385  0.3725174210480904
  0.8677539382461570  0.8766170934470814  0.3840184722081986
  0.1263330620872285  0.1295103150413870  0.6254213520174063
  0.3780775912130673  0.1249320513537303  0.6103955039040857
  0.6118091284793580  0.1274035555770966  0.6361763134995132
  0.8803960013218005  0.1256849255199098  0.6308516662061971
  0.1123876984275284  0.3880061458255867  0.6347800043808223
  0.3869379985621855  0.3609108272809517  0.6162186092730698
  0.6259676781973428  0.3646932493185967  0.6266502659151281
  0.8738662239106220  0.3854659315104541  0.6153696987980081
  0.1210306801235152  0.6308263651575547  0.6230811565134319
  0.3641357639696273  0.6186559839988844  0.6262676034759533
  0.6372299608124246  0.6196959513719810  0.6356298979808979
  0.8672619243458068  0.6211968929781088  0.6389276347804634
  0.1398201241884809  0.8697205613981148  0.6145598856584152
  0.3674306100578216  0.8888386545250981  0.6196736049922795
  0.6221055217905953  0.8784163497733709  0.6307480255439279
  0.8677017983164869  0.8788785159461999  0.6214864538512624
  0.1375977306572108  0.1243873658256510  0.8790139108478684
  0.3817887845443498  0.1109373096065208  0.8613398334231266
  0.6213919997004750  0.1117189739331226  0.8918868730222035
  0.8790072562248226  0.1149444914938621  0.8693607093377920
  0.1534437692409116  0.3783666814853587  0.8572736660287621
  0.3853614799739807  0.3683616748875470  0.8824937668487106
  0.6153600434022684  0.3795823176893199  0.8823364160642192
  0.8608950242424204  0.3741655487504977  0.8680692727832269
  0.1307480065007051  0.6245030194975825  0.8741142069310520
  0.3599264472571285  0.6235197338202502  0.8675169128674041
  0.6245552068997346  0.6265540588804963  0.8713978074145610
  0.8837399589899360  0.6151001523388788  0.8769636594086042
  0.1151283567259929  0.8937040083438824  0.8636490668369962
  0.3876559772564006  0.8675655340666956  0.8612528996095973
  0.6106671999886457  0.8794686914314315  0.8761750397311338
  0.8770277063719729  0.8777469920171599  0.8721052440320302
