generated by phonopy
   1.0
    15.9923497217343744   -0.0000000000015236   -0.0000000000010772
     7.9961748610645493   13.8497811253384029    0.0000000000003944
     7.9961748610645493    4.6165937083140518   13.0576988688087816
Na Cl
  64   64
Direct
  0.9902162285840956  0.0064402024107662  0.0020573689676500
  0.2514495491921980  0.9751040163862166  0.0123209254972372
  0.4978422299964565  0.9843309553873515  0.0082615378425129
  0.7336340847520578  0.0113618785558471  0.9981739859387975
  0.0115331010122420  0.2313840302105980  0.0114885387118168
  0.2347443157814997  0.2501660852115375  0.0090034537325951
  0.5012915245805150  0.2521161432476437  0.9952029519086725
  0.7399869525091658  0.2511327890871266  0.9968994325450045
  0.9958388211242957  0.4969307644442288  0.0084447562836811
  0.2395414695077337  0.5148632678139484  0.9985620408728731
  0.5146222895980472  0.4985877074869507  0.0094204054382171
  0.7454275727203261  0.5079244088169534  0.9903360340413278
  0.0140668808594827  0.7462523714020034  0.9984894388309717
  0.2874603368082991  0.7314876113475870  0.9790571343281993
  0.5183504473157327  0.7559111839016514  0.9732520726982055
  0.7225937409213299  0.7407019754044005  0.0124027582442433
  0.0079238420105306  0.9994412061629162  0.2500248721570162
  0.2352457634919903  0.0008539959795497  0.2579978623446448
  0.4975646878283831  0.0119035646917342  0.2422187441174905
  0.7314500483672944  0.9924170388585842  0.2443975990640423
  0.9772438222684026  0.2423649710740405  0.2865786524885636
  0.2414075038234288  0.2527738627026641  0.2558770517150890
  0.4983321396643318  0.2513412920090189  0.2580240774900849
  0.7544456203167238  0.2426033667582482  0.2422078161951199
  0.0070864052217516  0.5126387925586471  0.2223481271930417
  0.2431935571294798  0.5012806893895803  0.2544540878120609
  0.5010115800996587  0.5112636024188441  0.2555508134051733
  0.7500597074585851  0.5061009319481531  0.2611717773161988
  0.9904269993808835  0.7624992055907759  0.2312184847424516
  0.2533475585813515  0.7478020857511596  0.2404792136750231
  0.5058133657747748  0.7378856769578391  0.2579730445719046
  0.7483703120863932  0.7476056168221170  0.2632414694392093
  0.0067515287119780  0.9967715196054395  0.4947840208294786
  0.2689882961590575  0.0014691840463694  0.4964524119351921
  0.5065451128895295  0.9882433536308856  0.5080726232103966
  0.7419426275100403  0.0079537854451487  0.4972812159916752
  0.0201459412093982  0.2263183038505938  0.5042407542489831
  0.2564014214161415  0.2418393507435610  0.5204885329627217
  0.5068657334749267  0.2589480240872277  0.4904848630776653
  0.7585470443365734  0.2402622072107720  0.5036866160922403
  0.0044142159972117  0.4992025878647659  0.4971659353118443
  0.2540694317344014  0.5096112661234796  0.4925252794153240
  0.4946838334761962  0.5152404329801497  0.4946190230099195
  0.7385567569740754  0.5064995187350774  0.4925791110730214
  0.9725247743988261  0.7607564414486533  0.5157348547780092
  0.2472004132993601  0.7546891399535839  0.4865444112965239
  0.4939527012794027  0.7460271371378382  0.5075662225345100
  0.7508067806728862  0.7423606438476411  0.5094213594631851
  0.9936117672409102  0.0016642459904204  0.7531449473043129
  0.2628990049633876  0.9921456191729909  0.7606711367372416
  0.5092834359143128  0.9968397994565076  0.7452270547332779
  0.7314505434620943  0.9961510260211703  0.7621192245340597
  0.0121656974249427  0.2483384128199124  0.7470158934883843
  0.2361320612855427  0.2508854460015599  0.7439624541250882
  0.4941179516260080  0.2424931072063944  0.7505156476427792
  0.7507925159795278  0.2426376592096309  0.7555180033909600
  0.0026873758204014  0.4835503560709097  0.7568210611336476
  0.2414253975077628  0.5094433372692468  0.7434249740317183
  0.4893054644110416  0.4985150593285227  0.7461733716141387
  0.7422968631233892  0.4983946210470696  0.7625910355283410
  0.9821117102396706  0.7531855749237664  0.7672166130374019
  0.2572010143983533  0.7419911644788810  0.7427650375300430
  0.5131536113150433  0.7575844118190643  0.7347097756340795
  0.7700313595630024  0.7352320998722882  0.7542771372921173
  0.1402450786570803  0.0928321200103413  0.1241811334658645
  0.3762763398041527  0.1264417495368932  0.1319639537610260
  0.6564427152333979  0.1095446536925389  0.1148947119048212
  0.8656919210697394  0.1303582265488379  0.1295746521469243
  0.1318918633169816  0.3693838935845159  0.1290319765545397
  0.3756938420495886  0.3676645592696024  0.1315460349068885
  0.6220041186467794  0.3678961115495772  0.1344588060843948
  0.8842253002861881  0.3716440969883510  0.1220862126033139
  0.1275625341541136  0.6219873891340943  0.1241145772433754
  0.3895018426786375  0.6136342901876365  0.1309397805685680
  0.6275410533014235  0.6211198692891637  0.1236403329718940
  0.8800395399701527  0.6239704876736591  0.1271713800867445
  0.1174405378680142  0.8734154285166240  0.1455505742563360
  0.3845180259545694  0.8805323377045249  0.1161598408785095
  0.6135449657834022  0.8664964176310446  0.1357973909865715
  0.8758032598896883  0.8690488747767504  0.1318308273366190
  0.1285086640801079  0.1143234081607885  0.3750525811047092
  0.3663850747369799  0.1242107714824292  0.3695689863403005
  0.6204247333527261  0.1298729714647745  0.3750857300577604
  0.8728357331716261  0.1296250572183611  0.3741646774623546
  0.1221722353645150  0.3678937840176298  0.3841784351495713
  0.3680577037397225  0.3775298686379082  0.3826577490196751
  0.6471402723548849  0.3738347834779247  0.3635797996030687
  0.8607127677753771  0.3864679186079862  0.3788765905936010
  0.1152721680694615  0.6291227523207497  0.3817473273282696
  0.3877011050275353  0.6264098428015359  0.3639392444866197
  0.6233940083566273  0.6092114715192323  0.3862006251597285
  0.8805322265117177  0.6250585607470615  0.3807848593524494
  0.1316207414971303  0.8763594398442373  0.3653280674763667
  0.3624015227244137  0.8916467016571071  0.3822324290543688
  0.6317627199308335  0.8775395921157172  0.3662755689001931
  0.8829626551218376  0.8539353637393146  0.3693945863536165
  0.1196359950975000  0.1152822522704923  0.6239518057198238
  0.3647423847612681  0.1363854620108811  0.6182109671735037
  0.6179391444452068  0.1193700887248494  0.6327303399350920
  0.8607289951159593  0.1209584391048762  0.6229552071013242
  0.1236065226876879  0.3906412272995621  0.6132499363406214
  0.3910522004594309  0.3620718337373905  0.6220140559062004
  0.6293933274708325  0.3729212533737286  0.6207148981399849
  0.8623182213707489  0.3891117084412796  0.6143592642498075
  0.1303054940292509  0.6271066712572528  0.6164575902454379
  0.3703240520328953  0.6288823841578822  0.6284415380900816
  0.6280890745961866  0.6298795945743105  0.6181033186934245
  0.8882738306242786  0.6201155689540379  0.6374844677440106
  0.1189824953795928  0.8743137303787969  0.6323186102608814
  0.3694065825809009  0.8771019203818531  0.6422700247415267
  0.6321608988919256  0.8821782921796069  0.6172902977019310
  0.8673075304423746  0.8682833399581280  0.6300046814693363
  0.1373147336732028  0.1191500705087447  0.8704705487801043
  0.3918680149116007  0.1196579138756224  0.8726023786262881
  0.6265930140300175  0.1298779937450632  0.8791384653122812
  0.8718591567388529  0.1357757366718506  0.8826432840154955
  0.1359539892805026  0.3739949693936251  0.8707252400673553
  0.3786922217075044  0.3934836259026014  0.8627783387466633
  0.6314308152217324  0.3747566472317825  0.8718385190207388
  0.8659879925458052  0.3850536968615497  0.8938977168681799
  0.1216353016323006  0.6116233375051312  0.8793021710328305
  0.3666973708792161  0.6196304820418687  0.8831921753202021
  0.6195801582672120  0.6401866748696435  0.8820370855949049
  0.8663805024150670  0.6356915242572989  0.8740085604341379
  0.1344659472901890  0.8798354747359840  0.8710591779065362
  0.3658633328569451  0.8635410759933012  0.8855120405207051
  0.6056501234671976  0.8994060795630003  0.8706240449499503
  0.8646502595605221  0.8723642863464687  0.8760544074248446
