generated by phonopy
   1.0
    15.9923497217343744   -0.0000000000015236   -0.0000000000010772
     7.9961748610645493   13.8497811253384029    0.0000000000003944
     7.9961748610645493    4.6165937083140518   13.0576988688087816
Na Cl
  64   64
Direct
  0.0133827876516230  0.9937914981729143  0.0107697002977314
  0.2358451836533280  0.0032401726552669  0.0143408474157342
  0.4997778185276193  0.9913371031477493  0.9983382000542332
  0.7387706264783290  0.0046821247936359  0.0054187385764697
  0.9915693832587114  0.2716703143118582  0.9884635055569982
  0.2684647124708316  0.2483744735218383  0.9935382896027056
  0.5045974225257064  0.2582830343175969  0.9934956745854601
  0.7622392114287666  0.2237762216335302  0.9996758487266906
  0.9951636448770115  0.4972733707007019  0.9969523175953928
  0.2469757249636680  0.4932126621027928  0.0229384325653183
  0.4829975216060641  0.5039812903785855  0.0111793033863773
  0.7645290773475054  0.4895739159196634  0.9951415508160243
  0.0020699039534252  0.7639666948464596  0.9876192573654450
  0.2653646311641918  0.7508610227061948  0.9852583742265800
  0.5093344371968797  0.7496283065492618  0.9736582864876216
  0.7312266811672258  0.7500192386519038  0.0068378278942393
  0.9959050198111536  0.9901001640003438  0.2621272721226749
  0.2338357008857371  0.0083299078004641  0.2528986063031901
  0.5082040373429287  0.0063671723356255  0.2415275376215715
  0.7787009371503590  0.9871839272422108  0.2331872031366336
  0.9965327428029955  0.2313601954798743  0.2556394070623844
  0.2600522529155523  0.2452321326679635  0.2432130446884054
  0.5190605636658724  0.2237811329744059  0.2491114500585117
  0.7484540845581373  0.2756004247504971  0.2366866545935107
  0.0280323374110954  0.5029384726216848  0.2342552261011409
  0.2643949206500116  0.5005576110610287  0.2426248375126097
  0.4791540539870283  0.5033823416153702  0.2575186234215085
  0.7473484438341983  0.5234945279288187  0.2329884213072712
  0.0110021729124786  0.7560047171976458  0.2550936830977518
  0.2573330784187498  0.7388833216874210  0.2588253614638694
  0.4931836708710011  0.7379014410875526  0.2637970988305535
  0.7343180307373750  0.7487935216604886  0.2594832198800557
  0.0218278179815789  0.0000228813510041  0.5034684002835581
  0.2444499726187662  0.0176368434418576  0.4978272212567327
  0.4978302013325522  0.9934470631369701  0.4968582776652586
  0.7574140519240359  0.0232604157960027  0.4829476675516600
  0.0023528850733289  0.2647404182961283  0.5038003185226312
  0.2628644296785812  0.2512684599206969  0.5106696965703624
  0.5172932994548101  0.2303333777473356  0.4829986896286507
  0.7327593841075848  0.2417227723687954  0.5060311130534380
  0.9996900573046053  0.4960859013119072  0.4965092254915063
  0.2606204173456363  0.4948159128395146  0.4961161820396106
  0.5052680837731460  0.5153909295211522  0.5044612073375101
  0.7133034695176309  0.5180167814576054  0.5045586950522553
  0.9917091729695937  0.7531900381057733  0.4956659430219965
  0.2490429230850756  0.7295258083720066  0.5104021701666847
  0.5052409238087463  0.7579178170168093  0.4897983143005380
  0.7518466823273631  0.7376762631187732  0.5006715632530451
  0.0091959541972966  0.9790996869266843  0.7528935951044550
  0.2428060739841600  0.0042591628664865  0.7564540473857322
  0.4991899311530798  0.0107512244774801  0.7597805144874753
  0.7665366508602460  0.0007303238464309  0.7468189421088467
  0.0040226937042501  0.2508754613436951  0.7532271075694640
  0.2240414827113481  0.2416958483559819  0.7692283732494676
  0.5072718562834411  0.2615553220365953  0.7500217998913504
  0.7557370985844762  0.2534340355817555  0.7355875527821084
  0.9986713234850926  0.4809571031176730  0.7696231501510411
  0.2589640540061742  0.4830322792819080  0.7445508935306486
  0.5067686547563428  0.5124146056342540  0.7289015483757812
  0.7435982326147533  0.5056865305798650  0.7622402122460336
  0.9806458550502095  0.7555463534744891  0.7598132480427487
  0.2575419037137669  0.7511658856544541  0.7579016855583465
  0.4990442183302699  0.7647294587623583  0.7459059790136048
  0.7430867904874587  0.7514818321763798  0.7475019329776621
  0.1259201640778797  0.1297030890905347  0.1162065955196463
  0.3804528746577855  0.1261834515364283  0.1183999223174480
  0.6252774391068967  0.1185677554683822  0.1313466140177420
  0.8701897973888479  0.1375853171027290  0.1469237357165689
  0.1156550805569458  0.3788888269744879  0.1258966811214061
  0.3815949713124310  0.3828981975883456  0.1150475898413821
  0.5877359277608800  0.3743980418579468  0.1508746087369617
  0.8781741053548290  0.3667020788411069  0.1324378165936970
  0.1183772198098507  0.6159528167963393  0.1384682614873037
  0.3874812567416004  0.6145953931400355  0.1198187999466643
  0.6154676813742357  0.6351575363717755  0.1207649191184025
  0.8724522855941154  0.6187219604916165  0.1313935210061679
  0.1306519066186526  0.8846218075006557  0.1263308602669922
  0.3653583768031101  0.8911050445173864  0.1207504224465279
  0.6295423140859470  0.8810359260256385  0.1232532744290280
  0.8565764862626589  0.8829154207827008  0.1372430960033251
  0.1188015468612418  0.1147002318441471  0.3763420592191843
  0.3878953231896685  0.1062943792885661  0.3800798571533610
  0.6368755071735446  0.1151261753528849  0.3636111249444533
  0.8711676175269957  0.1013573193883760  0.3848827241122910
  0.1238938724032095  0.3811557129850587  0.3568681460756840
  0.3652317106838034  0.3833741873439703  0.3683299041882650
  0.6322924176149600  0.3483990902782328  0.3904461252835185
  0.8849005651267297  0.3769939493488196  0.3615499425872241
  0.1126266692263858  0.6455657183154109  0.3803160656333081
  0.3610953083908209  0.6453912880675252  0.3716453409468924
  0.6381961584660917  0.6188576625667903  0.3899927956700661
  0.8724211390602021  0.6240625983464851  0.3889547662919913
  0.1218509855222909  0.8792093013636413  0.3662555743170807
  0.3598474362175803  0.8906349441301544  0.3716475485561059
  0.6411699805351763  0.8824129811191426  0.3571690713415238
  0.8695187025775654  0.8901616130055403  0.3706331098989241
  0.1317245997887479  0.1199042819681678  0.6310532325103458
  0.3714895997375589  0.1229670422022536  0.6385148603576180
  0.6233803114256002  0.1362972274440967  0.6318224796181399
  0.8686658723920230  0.1352478903756353  0.6210729910126720
  0.1215259273432684  0.3855728871737960  0.6206852845658875
  0.3622444432968633  0.3832833870552400  0.6234788043340402
  0.6296721217292800  0.3660755784115459  0.6156437030996963
  0.8717317621614138  0.3764311953812171  0.6236343246687097
  0.1270011622548310  0.6314274313818627  0.6308788039942045
  0.3792224276905233  0.6069997191493620  0.6205033796208198
  0.6224855450453592  0.6220083889940261  0.6290275433625554
  0.8939422193092660  0.6304947154500080  0.6147497411919519
  0.1530641748196721  0.8541300264956838  0.6196181397380023
  0.3630656670847509  0.8828461596628649  0.6091944001622969
  0.6265325880517481  0.8869399584003113  0.6129032715116481
  0.8880800970784242  0.8529178152677945  0.6244187543321368
  0.1177803223990422  0.1198803241345321  0.8779761251113377
  0.3759406805027874  0.1121895593076360  0.8850106832818425
  0.6461703484485728  0.1155529648271988  0.8649648532812464
  0.8711844491326889  0.1344617428687963  0.8623711618028517
  0.1126234164393166  0.3820684817126186  0.8866270001442713
  0.3694045872320865  0.3732862294873461  0.8839551413832256
  0.6206482751433133  0.3831661071924819  0.8665746745574023
  0.8699590218424678  0.3867714365692422  0.8667204669185684
  0.1281615862817985  0.6345635780275347  0.8697318164918819
  0.3925693148289163  0.6237156170386244  0.8678887983050246
  0.6084174337496164  0.6462550262751388  0.8742062309699070
  0.8851675728135179  0.6322735091091245  0.8686790818916202
  0.1146481609631523  0.8631954757652069  0.8763817866276590
  0.3837039856802089  0.8755212605819771  0.8923841973373351
  0.6250586902992818  0.8699516293883540  0.8786736551609178
  0.8748706522414269  0.8824351443280285  0.8722891914007691
