generated by phonopy
   1.0
    15.9923497217343744   -0.0000000000015236   -0.0000000000010772
     7.9961748610645493   13.8497811253384029    0.0000000000003944
     7.9961748610645493    4.6165937083140518   13.0576988688087816
Na Cl
  64   64
Direct
  0.0200148295993234  0.0118301086419724  0.9843935620039961
  0.2620897927908470  0.9844321595581461  0.0023139196621212
  0.4969714717432578  0.0191836261969120  0.0029384222956231
  0.7372019368695550  0.9983246207125320  0.0006862014310138
  0.9973898427672052  0.2440665298047428  0.9998520107370813
  0.2404973411013927  0.2258591846721320  0.9982368528748371
  0.4977217317565171  0.2545936952422356  0.9972120135196074
  0.7680988849471441  0.2194350054409591  0.9879179345102468
  0.9728663244537941  0.5050864772992476  0.0134969176128945
  0.2378976679626084  0.4978713134564159  0.0086374122685015
  0.5191231647678825  0.4845339008763078  0.0017839643551060
  0.7411047511553480  0.5158171926188980  0.9898009401515576
  0.0110743686358484  0.7294643411663103  0.0017013799996095
  0.2534590920390200  0.7557271289573487  0.0009890975829155
  0.5034149025839290  0.7461036309968236  0.0015959160198829
  0.7442864417905701  0.7532244620977920  0.9985083350300711
  0.9807492865681590  0.0080722738563184  0.2483175584230845
  0.2596176257810455  0.0005823428662489  0.2404250014343979
  0.4782869042582961  0.0036157872896564  0.2467764600388589
  0.7502172910638648  0.9948502337318874  0.2501493010561666
  0.9925635622482353  0.2552835721644877  0.2520247864758386
  0.2402302188182394  0.2309813271121909  0.2583350941946798
  0.4986329375803612  0.2438455213471311  0.2480167287309216
  0.7589445425819736  0.2365714297657076  0.2640382571709153
  0.0176613403261216  0.4781051007111515  0.2533211843025970
  0.2413426021543465  0.5061928427585779  0.2726145753236999
  0.5101225952197166  0.4849208097836353  0.2460983311597340
  0.7545189276729611  0.5017197160604234  0.2570763934777482
  0.0066229678054783  0.7525941514852819  0.2442200471431903
  0.2616742546152188  0.7421074119518402  0.2646382258997527
  0.5031274044923086  0.7655908830265519  0.2423678059541787
  0.7433082424641156  0.7429712971538766  0.2580389647301955
  0.0066964275315587  0.9900801029555480  0.4966718961634355
  0.2427544332370649  0.9824709054901205  0.5168862978683942
  0.4916803426414145  0.0105208753338924  0.4879178945690066
  0.7406165818238253  0.9979191255222954  0.5022048538387234
  0.9911319992218506  0.2474432745606445  0.5038053328596087
  0.2797417683377331  0.2458704543472872  0.4764996193396879
  0.4903740059263608  0.2588018056126766  0.5186567262810137
  0.7473042877162117  0.2497056820899135  0.5002948896278705
  0.9868126460939574  0.5360628217310986  0.4867717750748911
  0.2632715902297219  0.4874538476271012  0.4937232072582030
  0.5096311247411397  0.5037571611895836  0.4993846735803427
  0.7482325250384571  0.5188877405010446  0.5021717080328264
  0.9976810347486096  0.7658841670569375  0.4867750057503556
  0.2498699476108418  0.7376633301280924  0.4902594199021943
  0.5077506117240477  0.7480605363394001  0.4907674924041322
  0.7529628301584899  0.7649010123668520  0.4980385228093952
  0.9895276726480550  0.9901181585935056  0.7538238772905320
  0.2448045168983643  0.0051857583973334  0.7448254649978957
  0.4751749651371684  0.0038196472366484  0.7700997472466584
  0.7480483895200178  0.0053415318207062  0.7392992257239206
  0.0032005132144460  0.2477603629165509  0.7395755483291069
  0.2427484467509881  0.2335761738691335  0.7644633209417152
  0.5036875152243736  0.2415998330602629  0.7367849088947116
  0.7436319488176638  0.2619905156564336  0.7619903261748564
  0.9985578590473838  0.4967976044654521  0.7547782226452742
  0.2408133558772382  0.4915236288333962  0.7867973478773832
  0.4884432560579691  0.5018801021507228  0.7507788379972660
  0.7474532738873363  0.5076211187632395  0.7468667637515924
  0.0089239939416037  0.7449472350309422  0.7396310404010761
  0.2449140506989474  0.7610240875549243  0.7579066416952354
  0.5303783536185862  0.7464689629578730  0.7383507560104009
  0.7658491610475153  0.7430450590345758  0.7364445912988460
  0.1257422738172559  0.1221548301915600  0.1169361513087269
  0.3754035216157794  0.1186282596457353  0.1252044868644379
  0.6112407558318884  0.1163015635184070  0.1564375214839238
  0.8758462733917971  0.1154640786239955  0.1239555555600413
  0.1298662888890341  0.3867151673571637  0.1110032497623050
  0.3944561731575594  0.3574869864748713  0.1282991278957862
  0.6396066087661990  0.3603405468880270  0.1326618566905814
  0.8762345296795360  0.3965922578524304  0.1178130942554968
  0.1329554158738257  0.6258219993036181  0.1179823207108481
  0.3921122590779976  0.6203499632871691  0.1208692148169560
  0.6293004233665112  0.6090314753795771  0.1407070339948567
  0.8682071927610775  0.6106195277320713  0.1347518766207338
  0.1161610132685837  0.8757956317356204  0.1251505000956588
  0.3911797697874630  0.8621865776030518  0.1102043873686478
  0.6256154416955209  0.8752628572285690  0.1206313844374980
  0.8704109643779991  0.8788192145882808  0.1098724722678105
  0.1333719589439186  0.1254742230900617  0.3696097241194191
  0.3722872097332259  0.1033627210343503  0.3924313907614874
  0.6187665684736670  0.1266294842603291  0.3877001880812793
  0.8734863548616102  0.1299256218161858  0.3762284175565310
  0.1344073036753511  0.3645777460559716  0.3799820650293289
  0.3625064011546774  0.3909902926921426  0.3721104894575905
  0.6344465665686815  0.3972308108051545  0.3597830609564256
  0.8611473363596374  0.3738494988909333  0.3794022997192100
  0.1248010115789615  0.6199259374504805  0.3765815190584527
  0.3698557416570297  0.6307512247135871  0.3843365927470422
  0.6166409992277680  0.6245419697177860  0.3795068975446879
  0.8588138568957582  0.6294754507832599  0.3816656440756033
  0.1109467899116403  0.8831255484997061  0.3631350881673233
  0.3834200921486511  0.8829940991068069  0.3571976567140681
  0.6337277670670614  0.8921941533148502  0.3506018384791190
  0.8840022308917946  0.8854564057900662  0.3603161212666563
  0.1352521145260280  0.1383864927370694  0.6050948396116628
  0.3744146175332961  0.1428523700963079  0.6035479155127631
  0.6270808788242648  0.1360972966499318  0.6247425182111115
  0.8757999477987652  0.1304210644793025  0.6210446310228208
  0.1266455174316724  0.3827857719204236  0.6153617755978175
  0.3728593442608384  0.3900413528632659  0.6162715559470781
  0.6269743131589587  0.3910544708418237  0.6110862556404953
  0.8623931084278282  0.3727414133300205  0.6361868842331109
  0.1363444031815859  0.6083232355022997  0.6303664566387592
  0.3871344876142588  0.6061200262666316  0.6245611981911913
  0.6310177670258074  0.6345263948067761  0.6229928812449378
  0.8696845615032253  0.6334278868389487  0.6270442593978689
  0.1338971127841603  0.8737474908784689  0.6281278707138410
  0.3912078400139450  0.8800901198882584  0.6232895621837845
  0.6184578155791219  0.8723517498816749  0.6322420862748243
  0.8802159786846514  0.8726480852209164  0.6263199982476615
  0.1174714091083833  0.1302787596863910  0.8807865631314896
  0.3712887984483200  0.1334558566872245  0.8681256738036265
  0.6124152325529459  0.1245883158013139  0.8848833791485722
  0.8875483779268789  0.1279044666389255  0.8572858503883226
  0.1364643583317077  0.3892378046050234  0.8702699547597751
  0.3802197422304197  0.3707131966252697  0.8660149717305010
  0.6120772566220345  0.3754507728199846  0.8873226384057022
  0.8696034172676392  0.3698462124878170  0.8792460068069061
  0.1109284488029745  0.6285171716359037  0.8889067671960338
  0.3690122893414406  0.6439661979439764  0.8598934813583345
  0.6182233582599341  0.6224255023332013  0.8786525002848784
  0.8775326736620217  0.6049514479283082  0.8694091614814912
  0.1306921385320854  0.8733831257774367  0.8635636370963263
  0.3728704941665082  0.8742829495628410  0.8765127057281478
  0.6062062431526887  0.8823505488398893  0.8716955833138808
  0.8801782684264072  0.8777911099670355  0.8699085775762487
