generated by phonopy
   1.0
    15.9923497217343744   -0.0000000000015236   -0.0000000000010772
     7.9961748610645493   13.8497811253384029    0.0000000000003944
     7.9961748610645493    4.6165937083140518   13.0576988688087816
Na Cl
  64   64
Direct
  0.0044724133740381  0.0065335355963706  0.9938052494114089
  0.2555584376643014  0.0100060654443942  0.9978883410489591
  0.5104651539515184  0.0014049656537634  0.9944715679521284
  0.7614500604736317  0.9994079906862148  0.9925427268887107
  0.9774761445314972  0.2577218711553840  0.0047654385965703
  0.2380714069783269  0.2615235792062522  0.0032044934118099
  0.5059575440667925  0.2410682683979594  0.0013465777142386
  0.7427790168177674  0.2488305386259097  0.9934267040578586
  0.0043863381458254  0.4920690287594140  0.0139879711538605
  0.2671481664863019  0.4775820507136074  0.0097324081207713
  0.5098403453013830  0.4970597856866766  0.9965504482713562
  0.7713812285438595  0.5051246462510531  0.9838978170794839
  0.9923301384157154  0.7621347178578863  0.0040235626477243
  0.2357191100754797  0.7535135236265696  0.0141359306124125
  0.5114758647924621  0.7445766582419456  0.9896649801817007
  0.7631483594565813  0.7435838176608071  0.9860476552881343
  0.9875550827143100  0.9989863614641916  0.2528081790579191
  0.2457016542894749  0.9897110670615602  0.2627226898328804
  0.4865783814087816  0.0014412069616810  0.2572104676506429
  0.7375508868868935  0.0018669867863962  0.2635215248382616
  0.0008777094044843  0.2612686845729832  0.2402281744432820
  0.2477835187009815  0.2377179917219299  0.2591344364537690
  0.4879739034813204  0.2440795773188292  0.2641742901761770
  0.7320930759860709  0.2586767573658761  0.2550543135912849
  0.9878922441584813  0.4998860118673192  0.2493907696829220
  0.2549547412285889  0.5030473587105104  0.2613043034808772
  0.5015651068184088  0.4956940573411039  0.2584318912113280
  0.7319866279859680  0.4999630080314654  0.2490316269262961
  0.0159190338763090  0.7454845971821205  0.2590004729751588
  0.2306085911968614  0.7604482991044315  0.2509951531023449
  0.4962492661758472  0.7470210259084430  0.2574282073027260
  0.7525025519284652  0.7343732575556567  0.2523129870342426
  0.0009916991801743  0.9949829379281272  0.5106052839084618
  0.2511699795264911  0.0225670420327830  0.4853895926010475
  0.5128700094604004  0.0010679649249047  0.4904598107928052
  0.7532286121202607  0.0145490137611489  0.4892801155539086
  0.9980304692186885  0.2421663182367948  0.5257783069916527
  0.2468444732476994  0.2390821239801907  0.4967367048141673
  0.5048212664400289  0.2592622150662178  0.4968456362638309
  0.7337049180100919  0.2610568100156104  0.4976876232107949
  0.0002796149541615  0.5051517306816234  0.4995832297060511
  0.2495047255190659  0.5197909547898079  0.4957240073096113
  0.5112100971385469  0.4937964753418085  0.4910578549246208
  0.7524127855998788  0.5093100740816483  0.4852731901430524
  0.0055975866899283  0.7668087209606482  0.4983745609870401
  0.2455291552363404  0.7542501038907133  0.4900844613087823
  0.4934430700011202  0.7609795887712502  0.4833687041046190
  0.7404068382372309  0.7544489554916214  0.5026068227305582
  0.9998722289434243  0.0029142684632125  0.7481605641141348
  0.2609365285189123  0.9715020291812091  0.7575421607923223
  0.5171286054002391  0.9805170198926383  0.7498668202433452
  0.7245959457222455  0.0260704849708870  0.7530990371350356
  0.0033225999209373  0.2267305597275126  0.7672958096627885
  0.2503330751941462  0.2586541786723280  0.7395541124379376
  0.5118300592398191  0.2557821322658980  0.7324004863024759
  0.7525252906555056  0.2552362774883326  0.7418952526234842
  0.9940362801520297  0.5165876841882597  0.7497142087005627
  0.2666718490299360  0.5099240448315113  0.7304932249186792
  0.5130310404059001  0.5048293704837945  0.7481449246949488
  0.7248785534196933  0.4974471543767609  0.7717577833014518
  0.0128962318579014  0.7413837172049580  0.7529511056353517
  0.2551998582145311  0.7544848915838753  0.7489504402287931
  0.5033857145620351  0.7435619204870669  0.7472068739383234
  0.7654167716749414  0.7432938982033691  0.7413450586638725
  0.1149762604789259  0.1270967624306259  0.1111003115322924
  0.3904308828750688  0.1253297668973000  0.1212375936992825
  0.6290445489641527  0.1271582299402907  0.1296542407670187
  0.8908382268132614  0.1056662165238693  0.1266206583322187
  0.1296464425845292  0.3680252425637237  0.1197902157152968
  0.3792244958642936  0.3641182296323768  0.1280105484662223
  0.6064238388861466  0.3991997781409163  0.1156788365527071
  0.8698626354589569  0.3796571165534810  0.1209361777268194
  0.1202425107258720  0.6273103559941746  0.1163883418409463
  0.3628236746282269  0.6216908799240964  0.1249661103465184
  0.6263609925993002  0.6257417643619249  0.1241431721732875
  0.8847454087731297  0.6227998857763730  0.1258805057050886
  0.1173843602943674  0.8777516305629030  0.1413415005404529
  0.3741979737033556  0.8966509915731660  0.1141845030802243
  0.6003367300860438  0.8810893388210682  0.1195227326763880
  0.8942041861467293  0.8776382245450669  0.1055069806806126
  0.1189368588417977  0.1310738395512507  0.3704570403685428
  0.3825959620413063  0.1055944822071688  0.3680340742830586
  0.6385438046445631  0.1119147377432147  0.3687085305654687
  0.8789419150716297  0.1356424395130771  0.3676828464530808
  0.1273306787269466  0.3820357003992620  0.3589097720622273
  0.3810171800937135  0.3638027943349526  0.3732732959724749
  0.6129923166488122  0.3747315765776506  0.3793749696426771
  0.8807300315790496  0.3653944147743121  0.3825788633653498
  0.1168663591210617  0.6183331807366523  0.3684217462092012
  0.3645434568751052  0.6221775817499118  0.3652780268126226
  0.6218641823726497  0.6360270154470247  0.3605711814397573
  0.8844203824544219  0.6292326755175905  0.3657066949947463
  0.1415708853193435  0.8754181802616320  0.3602654860490760
  0.3847002127210665  0.8732470630700284  0.3713895204638223
  0.6321890759319562  0.8594433228985290  0.3808085456470144
  0.8780821804688373  0.8803703177600734  0.3697925237481907
  0.1412043389029647  0.1245240186061873  0.6108323549044388
  0.3918840872962885  0.1266690593456361  0.6237615360812521
  0.6058261412300947  0.1259958073701526  0.6273451220415531
  0.8748395169724439  0.1338854145977925  0.6086960830221392
  0.1322798678984561  0.3768803886385398  0.6221003863217593
  0.3691484235478277  0.3656376507044414  0.6429309700447263
  0.6214897656509286  0.3755268840764661  0.6268410871707094
  0.8750673676413224  0.3831888792848561  0.6217249914759043
  0.1346656108354631  0.6443344531076448  0.6021689226319670
  0.3654062625478410  0.6283567505964187  0.6285559645980363
  0.6308515069508501  0.6119425379189268  0.6429634548231562
  0.8682872447409543  0.6161099041719135  0.6342218467091936
  0.1237231676042383  0.8749738622827703  0.6345123416063523
  0.3875988729532286  0.8972036812671271  0.5983830708252826
  0.6122346183863641  0.8817701646238157  0.6349568185299748
  0.8716462332281755  0.8792033039803003  0.6287255784833833
  0.1254134730560019  0.1214647841168165  0.8898538081544609
  0.3676841066925852  0.1269051109613454  0.8730520102518051
  0.6079328094776033  0.1417209744562969  0.8671182285717011
  0.8815113872821648  0.1295995178464060  0.8698064438397836
  0.1202792624829651  0.3691075058407112  0.8756494531395346
  0.3664679650277952  0.3779966324335342  0.8793244799253156
  0.6302642286423468  0.3621978216502307  0.8863400668642537
  0.8818636271185409  0.3692432288739194  0.8705768789140774
  0.1305147620808607  0.6392039685388653  0.8711357754985863
  0.3687564211820480  0.6103593807101920  0.8786606962266575
  0.6321465690045238  0.6194849759737173  0.8815401161861934
  0.8776575699210922  0.6180004305850753  0.8730017238068101
  0.1372384666137926  0.8718771946904118  0.8731865286283144
  0.3718320568300614  0.8622806999347681  0.8803492756304800
  0.6291090170818762  0.8878161448979851  0.8584213957253040
  0.8661691478364935  0.8756376036213835  0.8875428538438737
