generated by phonopy
   1.0
    15.9923497217343744   -0.0000000000015236   -0.0000000000010772
     7.9961748610645493   13.8497811253384029    0.0000000000003944
     7.9961748610645493    4.6165937083140518   13.0576988688087816
Na Cl
  64   64
Direct
  0.0034368041192955  0.0070788840900614  0.9991011574870964
  0.2532042997832510  0.9889070102034860  0.9948145062637141
  0.5058650035439507  0.9986707805778485  0.9958613806286633
  0.7648373224363247  0.0070071565607622  0.9964566388592168
  0.9925555813127788  0.2645299968379853  0.9968794442383728
  0.2546366969048675  0.2357824891212154  0.0007326389672629
  0.4882982356672228  0.2536691834943017  0.0022061027156074
  0.7539483251208934  0.2468956190763609  0.0041908071618499
  0.0067111890947473  0.4802853499155275  0.0146837417919621
  0.2568662570583766  0.4938464262722496  0.9968896777538162
  0.4929607554022047  0.4942897557892495  0.9952886107408659
  0.7625886401794888  0.5056812560348579  0.9962676460563935
  0.9917895656374900  0.7675362887840909  0.9825115845642306
  0.2431960482104726  0.7587423386979613  0.9976178454422711
  0.4956884392642559  0.7462181323719681  0.9959058714575605
  0.7463768180346740  0.7423751393195874  0.0087400144586155
  0.9848035943778966  0.9900903156090585  0.2571155661309732
  0.2548832492248416  0.0005854523794473  0.2556674925988812
  0.4983486436319480  0.0022233465598243  0.2478628961987996
  0.7476571853480822  0.0030672078792046  0.2418279259630696
  0.9939226460611705  0.2570021228375202  0.2511124222851789
  0.2472549742166482  0.2431818830312669  0.2648637284164885
  0.5101087978364178  0.2375725239659516  0.2546584334556991
  0.7572717769532735  0.2578659763433978  0.2539027620889762
  0.9985929631570808  0.4967783109493906  0.2506843124958116
  0.2537175774796089  0.5070577990132156  0.2394156715466881
  0.4860956291039004  0.5035507567010316  0.2552206174892843
  0.7457804092647907  0.5003218903114194  0.2629569794216997
  0.9894063751331762  0.7474508232050533  0.2460795425166754
  0.2496318451931901  0.7552869213804090  0.2503821046883319
  0.5109778839756359  0.7486740107323048  0.2332706335331102
  0.7279745728031025  0.7564978832665081  0.2537275866717060
  0.0172612717627924  0.9826662146362594  0.4973326956811218
  0.2635718885951917  0.0062332245703825  0.4822394603536177
  0.5065455966394747  0.9970555214149385  0.5129540283348948
  0.7597882270734067  0.9942799795575510  0.4900445976721619
  0.0161862127269044  0.2407640693089131  0.4797931052504870
  0.2609131524906159  0.2452177218663678  0.4940396639592414
  0.4911196209135806  0.2521635423164582  0.4894472114295726
  0.7383413927237450  0.2461392802376027  0.4997663568886256
  0.9999354155482866  0.5110863855945207  0.4964194450089750
  0.2409000266049958  0.5081293394979918  0.4923530276965845
  0.4999928885560456  0.4949449285210039  0.4952671825526507
  0.7605227537297025  0.5082944145186838  0.4928373214685256
  0.9827418876431175  0.7610448515102847  0.5035682439606818
  0.2461105980594834  0.7542916012519503  0.4953450468524944
  0.5210449917010119  0.7313605559027925  0.4874146966097219
  0.7601849351770806  0.7340247702869627  0.5142398360280240
  0.9820511390714021  0.0204157868594196  0.7358872752461294
  0.2636745890472355  0.9968912698868133  0.7392937537744890
  0.4933509894393784  0.0358402073072197  0.7359902471779773
  0.7426053898405840  0.9885627912211141  0.7634925332062807
  0.0195279675189624  0.2128993019351257  0.7548179464875703
  0.2364519217073688  0.2683681587673271  0.7424783182209319
  0.4967090901519923  0.2625762603323046  0.7357469046225573
  0.7480821979832164  0.2472515370728118  0.7601186113505797
  0.9883894699650202  0.4985124537674511  0.7620286001502559
  0.2552022237113849  0.5076095102014044  0.7547654260436123
  0.5141837447186368  0.4983600581168068  0.7429430179633084
  0.7437729572596627  0.4944998639610929  0.7674928740189660
  0.9886222148678894  0.7580377165983843  0.7565454517648307
  0.2351190498937606  0.7511042880553553  0.7553124663572891
  0.5044188309666570  0.7457643343702820  0.7416107894236627
  0.7397597870319003  0.7418829905487800  0.7570781394803818
  0.1318127370284518  0.1215251080198658  0.1227287004904268
  0.3714236820904149  0.1385375047660719  0.1124902825473018
  0.6191872912677523  0.1269809841298887  0.1233715712428224
  0.8893016900710223  0.1133123791730472  0.1078991343843111
  0.1254697207209000  0.3598469292109223  0.1290883216572070
  0.3723583630850127  0.3877718177676916  0.1228464018944988
  0.6144172015971752  0.3801384464507628  0.1330980349663862
  0.8786242404413213  0.3760599506441904  0.1214483573290727
  0.1315118028504854  0.6318229295490182  0.1131884690596375
  0.3694744823837439  0.6378746153416461  0.1132017101502044
  0.6210486092334601  0.6186981495431852  0.1369483399467972
  0.8680721066586214  0.6127334172898214  0.1378292290877576
  0.1060197771914926  0.8924865330617210  0.1362432196357627
  0.3796527090068373  0.8929606504776255  0.1125540105022866
  0.6261313100734673  0.8727444314643138  0.1217481722285297
  0.8715216210033556  0.8739402380759680  0.1268800103338534
  0.1306964136495845  0.1217427731813965  0.3770004355876257
  0.3849698726232815  0.1354266089245397  0.3658492766510676
  0.6272544184451975  0.1228963516907809  0.3833627306775581
  0.8838351321635006  0.1264786071819600  0.3645928360375459
  0.1318111968319780  0.3616160243929337  0.3762128149403420
  0.3865177587146907  0.3586410418071663  0.3738159085147666
  0.6231173701563032  0.3717692450288940  0.3765794655082951
  0.8952958994451196  0.3701714824781649  0.3709145863501244
  0.1197669740808063  0.6295350413804350  0.3797407540563835
  0.3767483417127361  0.6237531034014231  0.3586925841698013
  0.6110110293477069  0.6306495284632589  0.3818219655173632
  0.9005676021765316  0.6260772295234457  0.3622709595104801
  0.1239921276996363  0.8821410216874698  0.3807356922606122
  0.3709828179031877  0.8742229063585417  0.3785228758510497
  0.6452413745729496  0.8634476611871551  0.3747028231479079
  0.8656563406563663  0.8799551062612332  0.3672639513209985
  0.1273917996086436  0.1225659948777038  0.6067806062965349
  0.3772863024535563  0.1214494635463239  0.6366218009364276
  0.6060197111260313  0.1292843435093016  0.6365884237566504
  0.8699277087500560  0.1215540281793237  0.6259080668702046
  0.1182577550804515  0.3907835033011353  0.6235113217786949
  0.3568561700851164  0.3844357703796371  0.6345203190125056
  0.6188254406322361  0.3840731541227600  0.6371576731097234
  0.8713408271297651  0.3917519478232201  0.6162007275813797
  0.1169862977440449  0.6186892561628232  0.6454913151551539
  0.3699666994139654  0.6230194451508257  0.6277565858212459
  0.6278237659865711  0.6437928867946699  0.6078087873068059
  0.8866025868243262  0.6206758818745386  0.6334101449196917
  0.1176344665656305  0.8800480240959506  0.6325453908971937
  0.3722275228802706  0.8796921617649385  0.6254940998448240
  0.6102183326991457  0.8725952775358079  0.6294806709874665
  0.8769207649466084  0.8763932974256005  0.6186758169808110
  0.1212214913259658  0.1343882108407123  0.8844056306041563
  0.3637115882453576  0.1267619775322212  0.8812106939891181
  0.6132289841510852  0.1234707112432252  0.8794059900041904
  0.8888047374211674  0.1023781763664293  0.8858261715005898
  0.1264376864045238  0.3859529272904034  0.8619379796903891
  0.3783957474524398  0.3725152672479012  0.8832947621044105
  0.6020446162527322  0.3744690037614685  0.8980349032050009
  0.8924956676875366  0.3773293640850717  0.8637211527810654
  0.1225857309127094  0.6390982928794871  0.8685408070417961
  0.3749474028131629  0.6265888051630004  0.8714132153172222
  0.6034187163795777  0.6361461459596627  0.8722988688771344
  0.8707547324282336  0.6219663022991317  0.8659101254134713
  0.1232616646854728  0.8762569098679465  0.8727051402960517
  0.3618022470044651  0.8878691999966239  0.8762502846704080
  0.6287924518105875  0.8596429030754238  0.8910823515258884
  0.8827170817373100  0.8682469720019694  0.8774506550625617
