generated by phonopy
   1.0
    15.9923497217343744   -0.0000000000015236   -0.0000000000010772
     7.9961748610645493   13.8497811253384029    0.0000000000003944
     7.9961748610645493    4.6165937083140518   13.0576988688087816
Na Cl
  64   64
Direct
  0.0207749415890313  0.9941990813595436  0.0127704698226258
  0.2541457271466714  0.0115067154347279  0.0020325268022249
  0.5014613885866532  0.0057976565700314  0.9889610877784021
  0.7501219972665671  0.0125160331290812  0.9927249519342616
  0.9924441249442213  0.2482518651195376  0.9904570154768210
  0.2374638874346560  0.2537010906845699  0.9957781633472105
  0.4888426870698483  0.2558202892585931  0.9973666825353436
  0.7412279463111103  0.2485246986197291  0.0017293728153758
  0.0118353543536667  0.5161838552018004  0.9705404803948501
  0.2506564033890686  0.4961048901079137  0.0166257543340774
  0.4864950810452421  0.5098955380833669  0.0120759464922858
  0.7466125341199678  0.5193970635745375  0.9765128204890157
  0.0109474534764252  0.7420742651731752  0.0103849201171268
  0.2575929542907364  0.7490162384735320  0.9927461789898220
  0.4866597948294684  0.7555934982158526  0.0031364985915638
  0.7676736241366379  0.7332600734704934  0.9989537245396329
  0.0141564555330941  0.9921035840437884  0.2458999903957469
  0.2389458130845588  0.0030938151178486  0.2483836738654957
  0.4904084302563659  0.9999911910103640  0.2546135654674064
  0.7364363888313088  0.0201887050594647  0.2561888797973780
  0.0098223828565290  0.2667371514658232  0.2452333469045365
  0.2544023866966799  0.2644881067822291  0.2302393743944603
  0.4711392533304101  0.2648813196691051  0.2619915050119274
  0.7677376243862329  0.2419902999536044  0.2378001660619541
  0.0012397569491322  0.4993826857342338  0.2724438208307511
  0.2444469388570571  0.4946067909677368  0.2563644049857632
  0.4850671020906109  0.4999300579629847  0.2709729357171766
  0.7396606164303652  0.5016529795379179  0.2638350030642181
  0.0051774789568120  0.7298976032012514  0.2606246223141135
  0.2463305155599482  0.7446895168280669  0.2365529758388591
  0.5124782384240033  0.7386936858891185  0.2533587513181056
  0.7264130888055379  0.7579114639948434  0.2667034012394737
  0.0008875775486811  0.9952620317142832  0.5038126358294528
  0.2519152847288861  0.9965131788687842  0.5003166428913937
  0.4915762354292954  0.9871281183263697  0.5089575361456629
  0.7560266853289703  0.9884024571431853  0.4906858091514666
  0.0017593229781731  0.2639073565819929  0.4861036095372694
  0.2435310283680522  0.2432015074023626  0.5013537490206468
  0.4863669750444197  0.2550345099087312  0.5117090428680676
  0.7628890462114063  0.2461906338275794  0.5023570066991948
  0.9999598174563390  0.4966510397472589  0.5174264015304293
  0.2521258129552127  0.4990998398098312  0.5116907029933369
  0.4935314696894584  0.4912917356676626  0.5178915674440941
  0.7467941944771246  0.4901896949929060  0.4982701514559646
  0.9887975528746747  0.7598146263965447  0.5220838293228436
  0.2532284865924347  0.7475115054641733  0.4972633588353196
  0.4914299581428917  0.7610950020821129  0.5125497705248984
  0.7527872257614621  0.7485246344017522  0.4961495227016830
  0.9934409122465762  0.0014492761885780  0.7625534200127584
  0.2379809758000469  0.0160402633929067  0.7409758224714256
  0.5018697222603754  0.9907866240320298  0.7363073406564498
  0.7620544003034259  0.9923485058879129  0.7355873085699760
  0.9904536602501521  0.2667156845187347  0.7516538960029568
  0.2515066023951110  0.2519384809622475  0.7357369330075118
  0.5101557539693690  0.2452671396987112  0.7555638673425189
  0.7510044355263523  0.2311450317207058  0.7549474103005664
  0.0006298259793774  0.4864849251520819  0.7669715027969627
  0.2406011620563034  0.5019443771675335  0.7535091469068037
  0.4860245770530724  0.5010888937210527  0.7648429087615426
  0.7438685125226638  0.5052779058009449  0.7609737246997046
  0.0178891150372186  0.7690806749445486  0.7409546598924364
  0.2570472851718137  0.7439321057482583  0.7561411745548086
  0.5058012897793327  0.7486427025784157  0.7368344714047919
  0.7329711734011366  0.7573324840486715  0.7572689866977667
  0.1251730191239580  0.1206704442943467  0.1175592654136653
  0.3784048052016194  0.1264072619462214  0.1221280830017867
  0.6107378002599986  0.1473806362984110  0.1213658447251535
  0.8893745726350755  0.1178957670738490  0.1224402642787283
  0.1314080554151552  0.3706684467513503  0.1334584618337744
  0.3725243648414751  0.3728163199205753  0.1224332123680860
  0.6394887100622710  0.3728822162004443  0.1153434414289775
  0.8850466875173694  0.3551604047025361  0.1286110221664105
  0.1241192632171848  0.6236318348546254  0.1273107498970427
  0.3655909381518038  0.6231821225755998  0.1397930404157072
  0.6207295545435596  0.6251123780999245  0.1321380598943269
  0.8790819327022179  0.6234811453855453  0.1154450907352989
  0.1247133304808602  0.8818437540978087  0.1243452389553967
  0.3801967053155657  0.8840842182400179  0.1226118141728772
  0.6172569939081576  0.8760864018116812  0.1216046958885044
  0.8741158141580816  0.8714584033352502  0.1170581957517062
  0.1208093624187755  0.1272495827509695  0.3674491000650805
  0.3731399256708728  0.1157224754286947  0.3885780439706047
  0.6097758841785844  0.1318108390689994  0.3819339419157388
  0.8630948827000433  0.1205739802359878  0.3748491287896252
  0.1219227422549852  0.3873477872607256  0.3720555354511405
  0.3788116988807416  0.3703998539766972  0.3704954843794943
  0.6144415222308784  0.3886768087798774  0.3722146376588603
  0.8718220674589903  0.3654689954439415  0.3697911200990138
  0.1176929842095096  0.6342447624780893  0.3718271257829577
  0.3784716444613205  0.6441833176395853  0.3727451987888500
  0.6378668095801596  0.6237273438016179  0.3853105723578827
  0.8668071941429023  0.6363439829259880  0.3761307274252996
  0.1158736899733389  0.8745605187651126  0.3811927295620115
  0.3647137442925254  0.8828309284261014  0.3699517745943695
  0.6311657365848333  0.8742464354118683  0.3808728778558511
  0.8779523265625635  0.8737343832342286  0.3685031424555522
  0.1243821884047643  0.1316988212220650  0.6217188060048061
  0.3680423688331940  0.1243453741732836  0.6312434640620956
  0.6221546968145356  0.1299934052401248  0.6167995910791378
  0.8858149730619908  0.1209528231300847  0.6197874882994171
  0.1284288118300691  0.3821512815857562  0.6245982846993565
  0.3778210776796271  0.3771313181991192  0.6211815889530098
  0.6375608173922466  0.3711363833511665  0.6277288680294233
  0.8564046298501609  0.3911495931629960  0.6262547237109292
  0.1277307925816533  0.6242975492293046  0.6258401736148181
  0.3656316458798123  0.6340754131703752  0.6233827268302431
  0.6412808272480397  0.6275005585070388  0.6222656337740474
  0.8627396819887720  0.6409051707547115  0.6173963793443514
  0.1374630264695944  0.8583299730000389  0.6272017869223331
  0.3670856690841746  0.9001124737351633  0.6079625428093985
  0.6392803776440945  0.8627964075817224  0.6263101571548718
  0.8836047868195722  0.8726295137778990  0.6173327101600463
  0.1254131588961991  0.1188758554361070  0.8737307569362780
  0.3675102365057475  0.1216046268529190  0.8815534400121791
  0.6313074406893139  0.1276702226976191  0.8741146133331359
  0.8833691893525208  0.1320755594842669  0.8735261261407411
  0.1369807239723120  0.3783579549471350  0.8622447911533457
  0.3692630691908368  0.3739260323070073  0.8839714231430876
  0.6288870406220989  0.3635707972175304  0.8809085008743096
  0.8716297472934538  0.3757006747696668  0.8734952932177452
  0.1277060395179719  0.6288423824241387  0.8733246096204909
  0.3780912750302875  0.6249520241970484  0.8755999147368442
  0.6260641033911303  0.6218062498266304  0.8590484297773340
  0.8714911484622011  0.6290433152462710  0.8835889293129919
  0.1300904434831631  0.8766552448199065  0.8588972373609607
  0.3772925475771086  0.8776555728766098  0.8670112105925739
  0.6126812566516016  0.8808298406129085  0.8862679832025416
  0.8843670892491274  0.8694945357807162  0.8699537591032483
