generated by phonopy
   1.0
    15.9923497217343744   -0.0000000000015236   -0.0000000000010772
     7.9961748610645493   13.8497811253384029    0.0000000000003944
     7.9961748610645493    4.6165937083140518   13.0576988688087816
Na Cl
  64   64
Direct
  0.9885225343220586  0.0098224407812866  0.0027410298507134
  0.2509746716196635  0.9902937771539589  0.0059703224911229
  0.5071676985758008  0.9787301041236190  0.0074443789388940
  0.7522841124615995  0.0142650617737653  0.9974549923244797
  0.0072427518746053  0.2432660452322567  0.9958202668313317
  0.2472453159855901  0.2414382270124137  0.0000463959723978
  0.5006090395064575  0.2566055232971803  0.0085405599047123
  0.7454205331597712  0.2380717488307674  0.9909293793719361
  0.0058333327106103  0.5001552286594835  0.9967145225924611
  0.2423011419735870  0.4999007155650673  0.9882747695192693
  0.5072711633048894  0.4902334365436389  0.0151420880247485
  0.7205267902566189  0.5106944591241080  0.9983193580610932
  0.0023896937667827  0.7416031482870421  0.0165539525433812
  0.2222585548877623  0.7621175298875712  0.0027850410994746
  0.4965447585670245  0.7609080477857371  0.9956289711309148
  0.7511591502719985  0.7422410387361219  0.0259492920025977
  0.0171535264388660  0.9871224717105899  0.2457156102351785
  0.2480562370343576  0.0126439658279756  0.2374164757065212
  0.4875780675736590  0.0000402097380464  0.2427965825482285
  0.7653346160473991  0.9857247440989698  0.2497287723631660
  0.0135131414576091  0.2461269375507613  0.2453456485386981
  0.2391325766043880  0.2478545093480103  0.2581075255748247
  0.5019512189574531  0.2541973495587275  0.2523389716616861
  0.7525472773900491  0.2561190591839266  0.2363305453738165
  0.0125685951015459  0.4964654489857837  0.2447048789806482
  0.2576987902797143  0.5096388897453187  0.2301968084478789
  0.4968141289954725  0.5112473013913399  0.2426912169951225
  0.7340117851103731  0.4934673949088219  0.2564289340478378
  0.0003683103427598  0.7605559891229201  0.2428636764082923
  0.2690556484406166  0.7334324366702464  0.2460409293260609
  0.4762039286461265  0.7343445229542975  0.2735716746267140
  0.7616191790418003  0.7497020843621162  0.2287926457408679
  0.0161970008448424  0.9928245275217600  0.4924252711232441
  0.2477230640254610  0.9894083149931059  0.5163111817182343
  0.5009283191181756  0.9797461941516050  0.5049059883851228
  0.7463274838221275  0.0116038033887946  0.5063779524826756
  0.9872297077791281  0.2492542315462006  0.5054672266672817
  0.2349710488370731  0.2445248717202888  0.5304078774832091
  0.5032876894239725  0.2439607428152697  0.5050556413521141
  0.7465597122148374  0.2447019933186248  0.4992357476151826
  0.0161405136405083  0.4893397094977437  0.4808426833518689
  0.2337238840367336  0.4969174101713307  0.5176155449687724
  0.4830615496709133  0.5125535809079279  0.4860170203595526
  0.7506239119967106  0.5046503953255903  0.5037882693926854
  0.0051570468505617  0.7600779316795808  0.4898699083968034
  0.2552317500693307  0.7676873793714216  0.4892423665204776
  0.4760927992664339  0.7620610131843035  0.4871455999448470
  0.7503840243349343  0.7304968322285601  0.5092513216301404
  0.9950515780848395  0.9911307916319311  0.7535289175336957
  0.2585437397640172  0.9965153554844136  0.7376515721083241
  0.5168057225569103  0.9905770561012230  0.7518081714548676
  0.7520583974457743  0.9945520182248695  0.7505164930061877
  0.9803895653897405  0.2605401203780227  0.7532909516393271
  0.2369541079242619  0.2402884429747292  0.7640302130058342
  0.5072878058506634  0.2362778815029940  0.7555019110666785
  0.7471975319056312  0.2401563259927990  0.7659268123617791
  0.9994520576970697  0.5009704088431661  0.7300468051391817
  0.2542658010067403  0.4851641646581540  0.7467033079490686
  0.5048964003598008  0.4993137921545225  0.7399817244596433
  0.7378628844520123  0.4995308355236177  0.7386409450718002
  0.0066716619253386  0.7459788795330569  0.7464363726756951
  0.2694182410348908  0.7443961083273966  0.7490954464608334
  0.4968934941238905  0.7521694601573007  0.7392594351227032
  0.7286914347979502  0.7512846633479663  0.7591658422482148
  0.1492607768519095  0.1173712020862514  0.1129201803489295
  0.3614142129112761  0.1253567875337396  0.1280732219725548
  0.6516572429402494  0.1229642841563588  0.1174003974327710
  0.8733024318329975  0.1447328355867196  0.1155438842431934
  0.1235921233317058  0.3758227827336459  0.1220768298362138
  0.3822969729146802  0.3688777613633673  0.1327284638381446
  0.6388109013616107  0.3751564864143415  0.1155469448831076
  0.8730592220098001  0.3703220949523137  0.1202447167481630
  0.1127423637716593  0.6295361035424232  0.1342779139349704
  0.3982473172434182  0.6017313806075621  0.1199069411267228
  0.6240466380620060  0.6385778232421696  0.1172791221438906
  0.8759557736934029  0.6279620705525919  0.1350158060307484
  0.1191775582614724  0.8874974256280798  0.1243326818585072
  0.3684358627887659  0.8831950643855132  0.1225022998664509
  0.6269579862551883  0.8662301023002731  0.1365081293178470
  0.8715252821944963  0.8782315025683518  0.1314711810351155
  0.1300802623481017  0.1219546444524372  0.3665710496048749
  0.3657151754349908  0.1376148423070473  0.3673478050945862
  0.6268620197946413  0.1473679377259351  0.3631017429405380
  0.8853614701274438  0.1220715319663623  0.3862402023606246
  0.1215186832209208  0.3791394435668252  0.3820232488093208
  0.3852573586115803  0.3636889830446179  0.3710735048281552
  0.6238251879147630  0.3906717985633247  0.3592309772057248
  0.8682722699704540  0.3823129061784186  0.3690037316814910
  0.1386942293988280  0.6274461714051793  0.3593390011334323
  0.3791085628014836  0.6473724826132375  0.3598257159149059
  0.6183841602671343  0.6259182163814023  0.3724408034854223
  0.8875588355553163  0.6239303793767703  0.3801722509339521
  0.1288626793593548  0.8463244181526460  0.3954443237195430
  0.3778605482888420  0.8658858038474619  0.3788200780230357
  0.6116189502759414  0.8880174200991854  0.3777436074869556
  0.8731539654823834  0.8704162628430755  0.3726618765190055
  0.1283182000680174  0.1290885459069059  0.6262781389756751
  0.3879420848884865  0.1284371126831385  0.6136132966065535
  0.6029634780989122  0.1374850220227257  0.6276462966548261
  0.8791070074823898  0.1181497214196694  0.6236366787766744
  0.1157265867958224  0.3663090001065655  0.6307085287960948
  0.3576920246858695  0.3838187901544508  0.6208900695631270
  0.6258674983832210  0.3790334601727627  0.6216102454380553
  0.8663700900814639  0.3832346318095068  0.6332182261359811
  0.1276505323266224  0.6393894234556031  0.6180365266749930
  0.3618288821289862  0.6214785925245488  0.6296419146160653
  0.6189264552934339  0.6188173177194169  0.6279171590076565
  0.8743238252265277  0.6255517619737886  0.6227947470342030
  0.1359194753591036  0.8757728523300071  0.6235870224046882
  0.3578724307327764  0.8888876663791425  0.6325454850443937
  0.6240395000382147  0.8677504716989692  0.6300233933681599
  0.8880537229654274  0.8725986560160828  0.6164615079101736
  0.1421501377224734  0.1160544783777576  0.8724816633706085
  0.3811421911048399  0.1216170643659023  0.8658517655607056
  0.6249992502400259  0.1163107345589351  0.8875096432761153
  0.8863223989138864  0.1250987390667128  0.8719609580260788
  0.1166552783452157  0.3571635218583751  0.8987316312916074
  0.3936568021482680  0.3741917806086465  0.8560782008484235
  0.6271755511336186  0.3804856918786834  0.8836312966945685
  0.8673390358071768  0.3920099237486584  0.8599864257574042
  0.1397056717691594  0.6170703130590263  0.8539917311236261
  0.3731859252919477  0.6196265358928886  0.8911086397067310
  0.6293896344908971  0.6209426465815844  0.8620957144813410
  0.8832031553415287  0.6199034140608981  0.8793931486112860
  0.1337806282984196  0.8749291960628023  0.8717600924053402
  0.3910691901261315  0.8590073239160461  0.8725294014220536
  0.6291554284455102  0.8684306472075900  0.8744752889417067
  0.9010993422106059  0.8851101403641688  0.8693279421177618
