generated by phonopy
   1.0
    15.9923497217343744   -0.0000000000015236   -0.0000000000010772
     7.9961748610645493   13.8497811253384029    0.0000000000003944
     7.9961748610645493    4.6165937083140518   13.0576988688087816
Na Cl
  64   64
Direct
  0.0125671396882627  0.9931666200341620  0.9973785921562578
  0.2414098567740898  0.9877389624876823  0.0105134521581294
  0.5068998900294268  0.0005019468240961  0.9992741752216970
  0.7575037998008257  0.0033080234472075  0.9862692960578670
  0.0113030517239992  0.2449106627262582  0.9954702286796212
  0.2735877010472150  0.2449880131635027  0.9885977491948594
  0.4812821154511158  0.2657611145299817  0.9880164889413066
  0.7493265964025509  0.2515377253159897  0.9987885183837295
  0.0201218707251921  0.5045690464789951  0.9822803875683156
  0.2543950516743185  0.5025045179452486  0.0113244852172123
  0.5091005689856288  0.5061218854191791  0.9959005353083330
  0.7612610818542626  0.4835597180950073  0.0047078715773565
  0.9887328468071667  0.7480697508803649  0.0339040343586483
  0.2512064073046173  0.7463670510976356  0.0014056690622260
  0.4904438361626758  0.7558829175765055  0.0107857201571961
  0.7627608951740658  0.7580193569419280  0.9931899095829079
  0.9974498383083978  0.0132138816759900  0.2309700125910557
  0.2621294059941687  0.9771943981405360  0.2778330120214622
  0.4790350975886239  0.0277976630078823  0.2521729868656366
  0.7572982686523551  0.9864347550042598  0.2445129950028743
  0.9846427922649583  0.2491134489958027  0.2669053064735462
  0.2592165196979938  0.2421005930931835  0.2492677488193535
  0.5135425857343056  0.2613912657367040  0.2485270144053170
  0.7391462627302957  0.2505827490697919  0.2506665904264224
  0.0049645260694928  0.4934818064087692  0.2500317203316877
  0.2273275527636385  0.5039237101345901  0.2598352374053407
  0.5026402591854728  0.4913750322504390  0.2571344452124029
  0.7430119528328991  0.4887363296071632  0.2550154307973210
  0.9868138200072227  0.7652913639556149  0.2520263541693799
  0.2368143080105257  0.7601879755160905  0.2605831849927617
  0.5160723138718006  0.7380529708580490  0.2464114527675055
  0.7417646749520915  0.7461482655114694  0.2557603280154325
  0.9851889675739065  0.0102973596074590  0.5093079913980016
  0.2616172521755699  0.0033210326917803  0.4838698810373298
  0.5022223923681115  0.0023207044799922  0.4899846960876565
  0.7668266345454754  0.9881490224958484  0.5071958930933598
  0.9936186309009889  0.2380620617868285  0.5063531917688434
  0.2623896969185662  0.2624772939716941  0.4698278534136672
  0.5001706216124177  0.2523817176717045  0.4946118364402529
  0.7657605973914706  0.2430383607981922  0.4885908108314482
  0.9959671378441229  0.4879102699314334  0.4976635360773921
  0.2497840491801267  0.4967639467688407  0.5060651789342538
  0.4940837882212110  0.5030627190635280  0.5040898950566389
  0.7454632921494306  0.5092305812100949  0.5007983980767811
  0.0015751837784446  0.7490847629653777  0.4901894919260898
  0.2352519612091133  0.7529778668768434  0.5032579638866105
  0.4953552256683638  0.7587978449615796  0.5096807549722396
  0.7543945176898958  0.7618476805155020  0.4952685225811431
  0.9924664353588809  0.0009562853202065  0.7557488934099431
  0.2646731192389207  0.0016934665588187  0.7407514845270367
  0.4942051355708900  0.0110355338881440  0.7457834892258354
  0.7558848102777680  0.9999049516043463  0.7512098229137679
  0.9902071228039148  0.2654628387202198  0.7243653604957178
  0.2613024209765418  0.2587526500159082  0.7340338614965284
  0.4834138996626395  0.2584535602517021  0.7422831818853093
  0.7574473326093683  0.2533739192804060  0.7546121121769794
  0.9960654136413560  0.4875111160206001  0.7656019988128362
  0.2418588645955287  0.5110727199611733  0.7406948569827643
  0.5093773680085556  0.4948894681910181  0.7597837291864450
  0.7577801458770475  0.5027886746306502  0.7369470189628530
  0.0063902639108295  0.7573842113618907  0.7488841991141344
  0.2682889499510118  0.7258508452372516  0.7480164338790082
  0.5067280079146520  0.7427603002147278  0.7636846049078683
  0.7342238745502361  0.7517856424049980  0.7535536910857817
  0.1178822519165528  0.1372981211118633  0.1247810962035131
  0.3775578972838030  0.1129179967799582  0.1287976008067664
  0.6065021737364512  0.1215714400663844  0.1443349182102365
  0.8802328474791842  0.1166485177025108  0.1224739273236403
  0.1090647184745303  0.3839421026278182  0.1322151065399951
  0.3654782467618903  0.3941883574903786  0.1238643003899894
  0.6351625838278860  0.3656179322480296  0.1132409837977026
  0.8803755994413632  0.3921264339647317  0.1081977978349703
  0.1290057344628936  0.6272989203047864  0.1187310197641079
  0.3759429107248888  0.6245300809288760  0.1129550136720765
  0.6277765509746641  0.6318321064479108  0.1162558054056651
  0.8962987227531296  0.6299274967169027  0.1088538577543290
  0.1285105787272106  0.8782745979203287  0.1216565772726727
  0.3877869641868674  0.8697794840158330  0.1262951980205345
  0.6274061029232334  0.8613182224812354  0.1404528696466356
  0.8718316833000012  0.8649379625593483  0.1398009442158695
  0.1137082753661817  0.1229293143513263  0.3880956896310024
  0.3744278181518361  0.1179488225380572  0.3751159955388155
  0.6188815312965975  0.1179439940057445  0.3831576615269471
  0.8811285404931548  0.1218132219874102  0.3822993100847011
  0.1192326530719286  0.3792150333755088  0.3735867888910990
  0.3833195843931650  0.3716334222088952  0.3782466770636992
  0.6355306827700503  0.3549845816530685  0.3901278883444993
  0.8751488547966905  0.3629855247612478  0.3886933383445755
  0.1216618450878412  0.6067795098286777  0.3945347932883053
  0.3740730513539881  0.6174011896132007  0.3920978597523314
  0.6351681196868870  0.6034253099293455  0.3872934048439465
  0.8837158801864600  0.6251397095273565  0.3646303408588439
  0.1294866274273510  0.8804594016127850  0.3722047775939836
  0.3714441191693265  0.8765689975972644  0.3823857052621229
  0.6518414437046259  0.8692163311036505  0.3621757042255709
  0.8751273554874259  0.8617758808659428  0.3744153401766160
  0.1102846043484814  0.1165231446383890  0.6415398338867817
  0.3781079952991726  0.1185701216354334  0.6309069032248398
  0.6456794367653866  0.1009906822734244  0.6295808082326874
  0.8779061754559514  0.1212359420876172  0.6362475298657984
  0.1246064869223452  0.3981651706810319  0.6066838104210642
  0.3712432347679328  0.3762974734762275  0.6279519629454672
  0.6071653163066876  0.3620100003848175  0.6475723631423576
  0.8676794615940669  0.3772620510249397  0.6273189381358681
  0.1259687201984116  0.6169795349082540  0.6430244462328342
  0.3625796050647646  0.6345832034871528  0.6197174296584074
  0.6325271782153763  0.6188019810457581  0.6127927472625235
  0.8839494352335747  0.6249307208517978  0.6251279129696663
  0.1259319809963358  0.8759339720903178  0.6256544672625420
  0.3909411214911213  0.8677604550662440  0.6152315306483481
  0.6113450244880124  0.8806398183989591  0.6302308270399839
  0.8675393027686844  0.8811565767878682  0.6273278240625114
  0.1225277968031723  0.1367735739254947  0.8741491008079680
  0.3758934223525224  0.1323637830724798  0.8841038123663827
  0.6334801844186682  0.1229007435604142  0.8786084562272439
  0.8588908610656832  0.1240906494427779  0.8779225841687828
  0.1262708439239124  0.3681622177677741  0.8787034964000637
  0.3715181899686151  0.4026520682391571  0.8505973627782465
  0.6202886121129522  0.3666490372939516  0.8877793995419804
  0.8671280293427733  0.3789378455258829  0.8719742299284564
  0.1190571780727638  0.6229582482647253  0.8875326619814362
  0.3701883330974404  0.6325227110611553  0.8727375976862036
  0.6503577124149444  0.6059096324829190  0.8749480461287313
  0.8621938841665682  0.6264633183577326  0.8776088836983736
  0.1329654336346292  0.8670398748735482  0.8812934048727481
  0.3694033630514263  0.8702809202127020  0.8870210911977496
  0.6331381273487281  0.8658580510623406  0.8696916829666185
  0.8763543175277377  0.8739783522517257  0.8738702155445047
