generated by phonopy
   1.0
    15.9923497217343744   -0.0000000000015236   -0.0000000000010772
     7.9961748610645493   13.8497811253384029    0.0000000000003944
     7.9961748610645493    4.6165937083140518   13.0576988688087816
Na Cl
  64   64
Direct
  0.9795515544757666  0.0026858075837056  0.0105476509862020
  0.2563075849053539  0.9995297990166180  0.0011325941788533
  0.4842376507032519  0.0084521652138248  0.0080132294501852
  0.7465434701845746  0.0250424133028525  0.9858794159519185
  0.9987650204627935  0.2473427453670778  0.0222456552376162
  0.2408878290951607  0.2549339316666902  0.0074766543111224
  0.4941134233187898  0.2561011657947380  0.0034118808659191
  0.7404555049744612  0.2745346777528697  0.9930523736459623
  0.0202934996095177  0.4936439996490988  0.9883026291024862
  0.2494359136994985  0.4958056889889996  0.0083446703914829
  0.4888313958545367  0.5106307770085096  0.9904047181332016
  0.7534847207088698  0.5049590577738138  0.9875082515391224
  0.9807505382299004  0.7626953354120123  0.0015777202188950
  0.2675717679570294  0.7475717244597049  0.9903651831559021
  0.5071974562499497  0.7591293442231176  0.9907866510742173
  0.7547778394647031  0.7572135416862072  0.9848530745208944
  0.0055035993383108  0.0058817729314676  0.2477380869663547
  0.2302377617995189  0.0047659056650758  0.2731511573098316
  0.4841987227536202  0.9929851934650392  0.2702912940062774
  0.7431542284958628  0.9934378225707774  0.2741687732923982
  0.9957341642958469  0.2513646933998545  0.2399456860523221
  0.2460624746518811  0.2471737257754982  0.2513076629672829
  0.5047751438510890  0.2545366629689825  0.2339977728773671
  0.7632784891785738  0.2609486249041347  0.2346619032089024
  0.0114145424943653  0.5006247092400044  0.2420471211879376
  0.2458853144554993  0.5001511870589177  0.2503755521144738
  0.5137418598478832  0.4865172687552822  0.2483807568713908
  0.7295847638730231  0.5162103434657812  0.2532801851936693
  0.0066577923923380  0.7257840286493986  0.2654994331404265
  0.2503821777208220  0.7568456831736666  0.2567213997597358
  0.5087818220545830  0.7415912849258968  0.2386640664831614
  0.7389370844250813  0.7679832134581894  0.2284634021381791
  0.9863831090768794  0.0087982288329776  0.5043509381417091
  0.2389324665500678  0.9960262723518711  0.5162056809355112
  0.4881886352770366  0.0118767340936673  0.5089522245317646
  0.7491172927201177  0.0016269168353009  0.4968305747087509
  0.0009092869619823  0.2467891124906092  0.4959024370817904
  0.2617121415967164  0.2483635492245838  0.4892684504304257
  0.4901488382318769  0.2859975427904334  0.5019239683751812
  0.7633603030437240  0.2442380898805744  0.4947456179009438
  0.0146358343988147  0.4905082179172100  0.4973483383811956
  0.2541058815221913  0.4928349324847572  0.5122783298800221
  0.4879650501231581  0.5212209481994522  0.4803785775927412
  0.7705238517341669  0.4976378288107753  0.4950432725500830
  0.0056848526997950  0.7605882998016336  0.4977527027487028
  0.2553180852532607  0.7576728577595148  0.5009332910450311
  0.5005936665456194  0.7645609571400522  0.4989019171893985
  0.7463961613034577  0.7623402903760805  0.4918712370990106
  0.0020583511479791  0.9946204004355463  0.7657614864534913
  0.2590840804869114  0.9957546964661801  0.7400878334903426
  0.5032450392759776  0.0127776297896343  0.7407340170830313
  0.7535880614347471  0.9849850171388798  0.7561247318888213
  0.0177777611117357  0.2227415600630162  0.7615700005759138
  0.2433680919839626  0.2581039854380721  0.7474066157838354
  0.4842161229044598  0.2515031722602312  0.7542727528854980
  0.7500658618795422  0.2427668153729179  0.7664012229599823
  0.9807480729592621  0.5186598000933778  0.7464312208267420
  0.2626217792574113  0.4982823157029755  0.7382203661312978
  0.4881051655884786  0.4939667443083346  0.7548204148559972
  0.7615860049896914  0.5141714520543513  0.7349007643575609
  0.0080054312371063  0.7604064137942188  0.7461620362911534
  0.2462461228005633  0.7259805379816736  0.7655527158914135
  0.5050155399554341  0.7337799565358964  0.7565611326943763
  0.7499281194557518  0.7599199747411235  0.7456051864097315
  0.1243040648198846  0.1241560066255030  0.1249551987349718
  0.3747155537302928  0.1424751499367298  0.1209817287102584
  0.5943953131237529  0.1308233591879771  0.1282433813410757
  0.8781264824606391  0.1194511800003348  0.1202170691387982
  0.1179525794394801  0.3673891040575533  0.1372998456536634
  0.3769997750843047  0.3722466985649167  0.1163626145491853
  0.6267892256036770  0.3788397948979075  0.1259793734608895
  0.8787619975228332  0.3714454902318663  0.1221123062132750
  0.1163014620144478  0.6346095936916891  0.1250758410978934
  0.3651996983121308  0.6263481189265163  0.1214130889317366
  0.6357714903493473  0.6233811017819708  0.1169450981457572
  0.8670609709079258  0.6354374467066253  0.1303479684108594
  0.1218756360540102  0.8759457347212211  0.1266950329091480
  0.3742766453201772  0.8746773365803928  0.1181672543428396
  0.6281339631273559  0.8546604343867658  0.1193386435162614
  0.8834934741894380  0.8638677467398818  0.1180978142204136
  0.1357138966040298  0.1340317249797848  0.3703395711942331
  0.3669915021865972  0.1216270048100640  0.3786338520067394
  0.6325803744220007  0.1029325964742180  0.3720871700518178
  0.8626198368269127  0.1151926175258496  0.3745742636116390
  0.1343014044339794  0.3787508384912415  0.3708745355602778
  0.3876037474551353  0.3650407840341691  0.3754158533572723
  0.6338384111098769  0.3588858772869116  0.3777461180789819
  0.8938520229924735  0.3643486392171650  0.3610678199067970
  0.1039859817561808  0.6404257014260923  0.3808648559437439
  0.3783314806268938  0.6155221842477687  0.3748690643167666
  0.6290779652776184  0.6267702390088399  0.3786966293602901
  0.8665726168855150  0.6399903981197741  0.3675115744358194
  0.1262685361129756  0.8697012457266082  0.3817985873409124
  0.3724915800890610  0.8725047089317832  0.3763699091023842
  0.6201642131739997  0.8697746753259428  0.3752814309467168
  0.8806427120579068  0.8823386571511453  0.3700017952874953
  0.1397882258102588  0.1170213758416992  0.6191985096871635
  0.3893009987433300  0.1232970413695842  0.6232795265201121
  0.6369708621238964  0.1156327473399552  0.6215111563650092
  0.8800991937834159  0.1215059809096227  0.6149204409083476
  0.1169196772626057  0.3565174535720355  0.6268572245715303
  0.3728845198383839  0.3838604451073344  0.6270651580794038
  0.6458156329036747  0.3603432058235405  0.6164775089402014
  0.8754680317514468  0.3626776852238050  0.6328370937314705
  0.1191457508548933  0.6154687133355111  0.6180238624500012
  0.3680039104910278  0.6186288696473453  0.6361418213886444
  0.6170629833378718  0.6260549662478199  0.6201701316238544
  0.8834786153900243  0.6121867813476962  0.6243255554146677
  0.1353088078384240  0.8616622212321320  0.6326519666697753
  0.3655915264458615  0.8754906409652552  0.6366380319138591
  0.6314970568182389  0.8770370698849710  0.6179024490785630
  0.8725991656445614  0.8806650478821689  0.6211546745506327
  0.1423262233690279  0.1241462723305495  0.8715914935979969
  0.3822086708786557  0.1341235683431802  0.8648531593244715
  0.6120562687547757  0.1353976281648978  0.8725042521370432
  0.8685262057251284  0.1127908825651686  0.8815704110436698
  0.1188528304861393  0.3735204503301887  0.8672705073897150
  0.3959278944478509  0.3699852577334193  0.8683838088813708
  0.6476919266043504  0.3789579457683073  0.8617141227526077
  0.8672752574360061  0.3786037535729088  0.8670576439920494
  0.1307675192744097  0.6174011585846169  0.8786437628540483
  0.3904750757153323  0.6124235618940845  0.8869510239979078
  0.6253167009421463  0.6231419337313797  0.8773734312489772
  0.8706119972146740  0.6315788915823306  0.8651269416669995
  0.1416854194088024  0.8658374997422271  0.8646550838844154
  0.3756252196015926  0.8897744369107592  0.8535397241356972
  0.6305979813648410  0.8708401906346583  0.8628093046169187
  0.8485659010155981  0.8792607883359185  0.8938659647261493
