generated by phonopy
   1.0
    15.9923497217343744   -0.0000000000015236   -0.0000000000010772
     7.9961748610645493   13.8497811253384029    0.0000000000003944
     7.9961748610645493    4.6165937083140518   13.0576988688087816
Na Cl
  64   64
Direct
  0.0150358336054544  0.9865044512733195  0.9934161681301983
  0.2457192788589856  0.9948367323925101  0.0028121988581032
  0.4900609435297247  0.9968615806150147  0.9991941349090092
  0.7507733302115610  0.9953358423411438  0.0073521791585939
  0.0100669609851548  0.2407840424742268  0.9953928924599855
  0.2319440614359229  0.2499800610715410  0.0147603022957189
  0.5177558334472940  0.2426364251447864  0.9964292574296656
  0.7344319118962269  0.2644785083325100  0.0040587423184542
  0.9999675482423932  0.4955218368208613  0.0044247207324548
  0.2444735619749650  0.5105488971125471  0.9851614482567945
  0.5191246327675706  0.4788048550753398  0.0054052715326228
  0.7293494737504425  0.5038242089695840  0.0182424386558839
  0.0088025928005310  0.7417069627684293  0.9910714469274829
  0.2478284676374159  0.7492697815502973  0.0038732754709531
  0.5044873809131724  0.7559502259838098  0.9838417863714070
  0.7356699923301205  0.7619813011877817  0.9947218990827982
  0.0012860237474303  0.9945610019344878  0.2416413319168078
  0.2665281597879846  0.0158271979445555  0.2326505150209272
  0.4923613023871948  0.9853522734736652  0.2674811427071470
  0.7572479523807214  0.0064036878679624  0.2476735233836390
  0.0100028961618591  0.2366634692521940  0.2552494248209902
  0.2566260822484672  0.2471203185805183  0.2482386241260399
  0.5047542023964531  0.2539232778075161  0.2323834040061113
  0.7551184542397148  0.2533291100749261  0.2499916125096788
  0.9981975805295404  0.4965555954421602  0.2598904590180797
  0.2455851063271399  0.4956504688649678  0.2622467979853833
  0.5083787342833069  0.5049216431328261  0.2567291146949072
  0.7505316393403316  0.5153790245475954  0.2369888796613109
  0.0088164404685467  0.7327009291225456  0.2518688536052555
  0.2347427754485034  0.7557603759050783  0.2663963752350187
  0.4844450924685780  0.7578026694019686  0.2428046586662966
  0.7669480021826767  0.7285412928343538  0.2676115976334076
  0.9834695532296076  0.9888482903371791  0.5115398084244704
  0.2498055786112934  0.9868303942806841  0.5056584881323529
  0.5005532102252185  0.0040800342888372  0.4888383643343981
  0.7513350689010544  0.9900384386028187  0.5170691556972546
  0.9885704206034724  0.2443594352558425  0.5245297462135494
  0.2648975416710790  0.2429079451085968  0.4918124173514347
  0.4853059965587330  0.2610961910982007  0.5059275625442465
  0.7548338130384141  0.2407663100200702  0.5112198551534514
  0.9927637742148809  0.5206528755246566  0.4885519308904256
  0.2489441367484664  0.4980504020618116  0.4978637523677387
  0.4896859359123937  0.4949539858441636  0.4996004459838669
  0.7452248352007365  0.4927275326036666  0.5074188119826668
  0.0006586824795017  0.7340216040634833  0.5156468425510908
  0.2650766717219468  0.7585613457730105  0.4914474862537217
  0.4942532968006994  0.7495212049447104  0.4930370972640889
  0.7386241212272529  0.7738427388490325  0.5023152297346831
  0.9999099199398893  0.0128322351781210  0.7404196333321790
  0.2589753317751717  0.9761108046860938  0.7521661850156711
  0.5102015846177899  0.0041576341196158  0.7562220042061862
  0.7384560589468087  0.0208725781523606  0.7425266237232332
  0.9950976372780080  0.2344226169146739  0.7655872468023412
  0.2605910938515427  0.2443572161636437  0.7341977769085707
  0.4809904264699087  0.2534401173217258  0.7608601592106947
  0.7304205369710781  0.2544261605282454  0.7647248105127524
  0.0023560334181565  0.5033451219479667  0.7384063690472555
  0.2239771882497027  0.5211928488752103  0.7462011615854814
  0.5193099168175047  0.4951505199847742  0.7298023487938466
  0.7737147191043822  0.5073644422464256  0.7262606269555358
  0.0136307984571625  0.7633530803172870  0.7418326184877982
  0.2450056858530152  0.7499077792777575  0.7596564638532334
  0.5062401635429525  0.7506033330455923  0.7409592611229082
  0.7542161652286278  0.7418733756313499  0.7473865955242159
  0.1370288497801017  0.1251559834248724  0.1141409819674971
  0.3812513063213727  0.1327268019587268  0.1238265324557962
  0.6322209694705508  0.1302708975293885  0.1255041979880033
  0.8860751510363440  0.1138661851996058  0.1322833392958972
  0.1289778575332066  0.3874951484075981  0.1153567407196320
  0.3752564321828779  0.3775705474575043  0.1181756471378566
  0.6272910316968092  0.3728256163533554  0.1219631687735317
  0.8763392169300968  0.3697748998176763  0.1275671185735900
  0.1236496696700351  0.6235003333870094  0.1195395833135812
  0.3822195868630689  0.6146954342555416  0.1308839535607992
  0.6172782310420100  0.6276268398758083  0.1224796834264421
  0.8723352032592716  0.6203386100250440  0.1268473769169651
  0.1524886593149257  0.8558704775715137  0.1216471799555543
  0.3853268060770803  0.8898420767751725  0.1124366426075407
  0.6177333260077955  0.8782519509137581  0.1239165083650915
  0.8844974523339767  0.8673894946689950  0.1293426683086447
  0.1163270270916680  0.1435172734394920  0.3758262056650635
  0.3821443432194262  0.1251702178496523  0.3768479877325933
  0.6295466091895535  0.1141201934745446  0.3680194386727386
  0.8681364922899766  0.1251396025057669  0.3748532052742692
  0.1403193796947321  0.3551537658493254  0.3795409933814325
  0.3703250432604119  0.3920845777853640  0.3663186575063856
  0.6183318889580126  0.3740218206235366  0.3883410360953298
  0.8918415777563280  0.3635921891119599  0.3596421026260845
  0.1230834216071798  0.6289698676944647  0.3821449640223919
  0.3710626893737719  0.6123275434670905  0.3786842966475631
  0.6195463336117060  0.6213173406251289  0.3779104719887428
  0.8711919852071621  0.6265486761403397  0.3755005664736993
  0.1257961098475238  0.8640428857490026  0.3765166985679967
  0.3690952861279354  0.8755227347058819  0.3651249948170032
  0.6077638722394538  0.8667457540500680  0.3868960488796576
  0.8736549416587287  0.8898573129551255  0.3681972530645754
  0.1188906731508953  0.1313454322278657  0.6291731488557920
  0.3818739140114158  0.1245925507586575  0.6214637968994290
  0.6335138209408483  0.1103552146496873  0.6418056941703000
  0.8677805274196643  0.1451818351035341  0.6245886409590682
  0.1322235380214576  0.3635188879412459  0.6313220056511987
  0.3833307334169964  0.3890270488424006  0.6012719634196992
  0.6208309995650880  0.3722182054081450  0.6182855734096092
  0.8812041728237534  0.3718586898165883  0.6200209990341199
  0.1292708305975606  0.6269332004689856  0.6253193362502372
  0.3761949621734995  0.6257888073554170  0.6228316436075244
  0.6197427571998552  0.6131950839821518  0.6457261422389026
  0.8913456781525395  0.6154230916399104  0.6206305904627721
  0.1306813734231216  0.8677200041914968  0.6175716797206333
  0.3751849419612735  0.8783081961505247  0.6236942042855343
  0.6281202820635310  0.8609669282740530  0.6395169106696378
  0.8700757231833354  0.8499727005469088  0.6418092797521802
  0.1172452025030216  0.1357781734546783  0.8649371991101036
  0.3946553701586318  0.1228329845862740  0.8743108444865881
  0.6215962703896510  0.1204526799916161  0.8856003391833532
  0.8840453454266770  0.1256600447530953  0.8846435571278769
  0.1333357176303398  0.3731580707485826  0.8604718076427521
  0.3728608228667870  0.3567716220407766  0.8984726135125342
  0.6249477053119925  0.3772707220107273  0.8589234707652504
  0.8661836840276275  0.3752350707645793  0.8771181931947236
  0.1344450894480216  0.6325144268418419  0.8567429188867263
  0.3735861607631286  0.6116924725961076  0.8863160062632416
  0.6116075821103644  0.6330809701660709  0.8702528579133874
  0.8755340118299841  0.6312058423142969  0.8646979180078707
  0.1205135450305440  0.8871244287031023  0.8716334022259375
  0.3705841995368248  0.8738019727560586  0.8762456994164315
  0.6231467589795567  0.8832996513315101  0.8792621701695305
  0.8660056479797146  0.8778983492450428  0.8863581819268805
