generated by phonopy
   1.0
    15.9923497217343744   -0.0000000000015236   -0.0000000000010772
     7.9961748610645493   13.8497811253384029    0.0000000000003944
     7.9961748610645493    4.6165937083140518   13.0576988688087816
Na Cl
  64   64
Direct
  0.0022585095713257  0.0043342486856604  0.0063607463684783
  0.2533192984719421  0.0001767390716930  0.9989477265070513
  0.5027848812576219  0.9961289730170839  0.0033531740949831
  0.7628983510900456  0.9960313511278791  0.9989532077285582
  0.0055351413789089  0.2773193040009734  0.9874128364892654
  0.2626705140541831  0.2468437446346547  0.0002007749149040
  0.5072407050853187  0.2468453437380050  0.0137637444743428
  0.7549419493312357  0.2748706998162681  0.9868215669617898
  0.9993867660349354  0.5125210915588956  0.0075181412737236
  0.2324858630105959  0.5131220191877289  0.0023185532735214
  0.4923468501749961  0.4858945604973154  0.0060492680573041
  0.7461020281817744  0.4973030632035237  0.0083167195140126
  0.9964675035072759  0.7722868386169529  0.0069203316540260
  0.2493639483061602  0.7577660089578762  0.9978045069606946
  0.5113211656570146  0.7502741937462388  0.9905801953921035
  0.7638057857150501  0.7515435218538128  0.9965383186883479
  0.0127830389968567  0.0118257039152210  0.2483021553704332
  0.2576822296596127  0.9963879158175742  0.2363633245762198
  0.4904199256216805  0.9998123205332572  0.2500029361534186
  0.7511108579441960  0.0041983334344441  0.2661884331683099
  0.9986765818183091  0.2475451292760749  0.2478392442822284
  0.2602406366687039  0.2567859203881370  0.2527076013179212
  0.5002694172210658  0.2475059694505412  0.2454728556718195
  0.7484733615155359  0.2504360202122488  0.2633401790705077
  0.9990809416618127  0.5133684402410974  0.2442094638566317
  0.2349034610106115  0.5035377611779763  0.2705934688622365
  0.5038757920503834  0.5083644707206074  0.2357717298129587
  0.7620118605645515  0.4819059253928711  0.2567510053455866
  0.0106384599103711  0.7197101943218740  0.2623340707288380
  0.2436326634021326  0.7626207041775960  0.2466735688453695
  0.5017791404214427  0.7464555229445916  0.2456204117238824
  0.7644778727018883  0.7383877548085958  0.2364441496628855
  0.9893274799116926  0.9807397010643770  0.5292518091976129
  0.2513368468068212  0.9979050596230837  0.5081068842326815
  0.4904742178443410  0.9992367455092971  0.4847038403662986
  0.7414009298145442  0.0183250357801840  0.4929469710045649
  0.9906205010143088  0.2573851146830292  0.5051452078637324
  0.2629245964031603  0.2373259334244968  0.4950857489141763
  0.5016798170591729  0.2564160248886588  0.5035336679732169
  0.7575358182939173  0.2638999265066270  0.4914232042641399
  0.0126871808502163  0.5083445860088860  0.4765917352433879
  0.2275905701659602  0.5167136552506844  0.5095689845565260
  0.4957031510324821  0.5028384641253109  0.4982322346693388
  0.7369995746851603  0.4960950390718212  0.5131781591554426
  0.0031933443489791  0.7543049736812939  0.4840166822000174
  0.2550307051265659  0.7522294799885612  0.4887369717931694
  0.5036456701814349  0.7669866664090317  0.4836507303184114
  0.7560029991409465  0.7540689530228026  0.4957028880953920
  0.0090281355114644  0.9799994930042233  0.7613081549572780
  0.2493482354633726  0.9922877793542224  0.7523180287594965
  0.4955255344939299  0.0030127052387553  0.7428119199831368
  0.7450452630369772  0.0049054755266205  0.7488465696904417
  0.9952527066824335  0.2351945694934103  0.7517943161251358
  0.2305260311246455  0.2787411366158897  0.7383064474847141
  0.5233046432214100  0.2504074952739663  0.7396661304893195
  0.7466162400433316  0.2495470298685300  0.7549019514672656
  0.0021740293629830  0.5006918356624046  0.7407807586006199
  0.2604016267907948  0.4987428032114007  0.7636947214525454
  0.5118322626437739  0.4791955170765673  0.7554962160169094
  0.7526447443935713  0.5186930270131905  0.7465348908743504
  0.9978507900224742  0.7522435924923225  0.7479669921911667
  0.2470619827619074  0.7665764141882990  0.7536572338920207
  0.4945428738059215  0.7525092707875802  0.7408508229475175
  0.7522240123289741  0.7596052558797478  0.7458796403356268
  0.1283967117077445  0.1376546631688290  0.1158934528000785
  0.3742894862198030  0.1257404750369875  0.1285204440003216
  0.6272823018488074  0.1164526310076352  0.1366072474909384
  0.8869256078954391  0.1280091704365610  0.1117751061740381
  0.1251398611080424  0.3720634542611210  0.1222884975644283
  0.3688472562531063  0.3945677074830072  0.1096839530539368
  0.6230569608271036  0.3683929657091458  0.1301046013201083
  0.8850587615845422  0.3714604359763551  0.1115738365762198
  0.1266340450005487  0.6324017913905623  0.1184395736949255
  0.3640094259717890  0.6332216776990686  0.1222633194646705
  0.6064510398457073  0.6268583188710023  0.1392299808131504
  0.8664693463408882  0.6247871381590826  0.1253591232852718
  0.1277567626810831  0.8734186673251446  0.1090477929999026
  0.3706047137836190  0.8731943871017424  0.1423781274105280
  0.6221204626861283  0.8710089073619627  0.1251260567006879
  0.8789915262327257  0.8632977686949955  0.1303289004644419
  0.1244761530340395  0.1150095608141610  0.3877845108791051
  0.3736729152605432  0.1265640175464244  0.3585569152003808
  0.6381134499592209  0.1225927162411243  0.3829988739991148
  0.8772243931738595  0.1276097047462627  0.3772622926180420
  0.1123516776076331  0.3828322045638556  0.3746168808399152
  0.3725981175925413  0.3882304870114598  0.3651348808436850
  0.6046375127901165  0.3716745959291428  0.3798671038793879
  0.8854422427446863  0.3811921660171288  0.3584947289771355
  0.1223265058303956  0.6192687328258486  0.3681348488762951
  0.3788461046247514  0.6156904890312511  0.3709039294575721
  0.6261483416801885  0.6164633326132940  0.3881168756041481
  0.8870186181596018  0.6212406122624841  0.3603597793207690
  0.1397783162188187  0.8580339323212267  0.3793203328837664
  0.3639964981037723  0.8923044252440852  0.3685604267478706
  0.6253081997163960  0.8675558573475407  0.3786618214283557
  0.8753824089168090  0.8694103764135837  0.3671094101172203
  0.1269105640409498  0.1227059097777398  0.6254391162747261
  0.3833859852982678  0.1166532971992227  0.6148943261865900
  0.6228034511767314  0.1307262545316566  0.6230514068538362
  0.8851893960010936  0.1237389538753198  0.6200043829090476
  0.1122405297631729  0.3680144779590910  0.6316160929773056
  0.3828030456896064  0.3817260572906790  0.6242018691728868
  0.6220534856971200  0.3774218624146904  0.6239049308983576
  0.8803714512057780  0.3688115189283615  0.6207537358574119
  0.1164420224302006  0.6198963323602590  0.6455384389674366
  0.4022465968421206  0.6127732391988003  0.6183852878483090
  0.6175058444940952  0.6148781572028279  0.6150576904095637
  0.8556767997426735  0.6349976030621928  0.6324671072143625
  0.1265056078386564  0.8615405225273941  0.6283229291640517
  0.3752795902453657  0.8527625224884011  0.6340189155559278
  0.6213607263296682  0.8788945015382220  0.6400980590877225
  0.8634063639349685  0.8828735024275943  0.6380935624748514
  0.1306561877820826  0.1099183006100372  0.8777447375386631
  0.3861386914533249  0.1346683104391789  0.8701665871243895
  0.6234778404521346  0.1102900819442110  0.8942904761667080
  0.8821934547721599  0.1150852209553500  0.8815307294249708
  0.1240890745744969  0.3746665970397027  0.8706362515624890
  0.3724140861253734  0.3706740873665357  0.8756243805274374
  0.6069153724634712  0.3704498319333642  0.9011354113187302
  0.8655196458148617  0.3693441121175206  0.8981268935791030
  0.1305778774763260  0.6352509328834195  0.8796684452972756
  0.3687006292466997  0.6205246273494041  0.8900238539757526
  0.5951290754445897  0.6355872063051707  0.8819279564361177
  0.8596807467717895  0.6237691136446917  0.8753707637307770
  0.1264585189866362  0.8689659223573875  0.8622836516943357
  0.3740179217310174  0.8958458276950217  0.8658795406967327
  0.6220021856157529  0.8772724952105820  0.8631522423579145
  0.8722834108512890  0.8728501397355974  0.8707192388965342
