generated by phonopy
   1.0
    15.9923497217343744   -0.0000000000015236   -0.0000000000010772
     7.9961748610645493   13.8497811253384029    0.0000000000003944
     7.9961748610645493    4.6165937083140518   13.0576988688087816
Na Cl
  64   64
Direct
  0.9986278218369729  0.0006735393753571  0.0115131162665479
  0.2438522840962034  0.0089327849643684  0.0036847157452535
  0.5089016648964533  0.0119046773603536  0.9838282771039638
  0.7436791523969336  0.9976928201141679  0.0189999493165592
  0.0113670106034129  0.2528446318823068  0.0028813870654452
  0.2584810665680218  0.2545461802474081  0.0149189477468697
  0.5091173810837505  0.2553204235983841  0.9955027217315915
  0.7617136365407862  0.2526378176007777  0.9873615850354615
  0.0025584590717777  0.4987280270584943  0.9911627811241223
  0.2574105093115844  0.5046834449551114  0.9903446978661666
  0.4950705428346130  0.5068267898631171  0.9937611959390524
  0.7537597065271252  0.4922285199441891  0.0018444556434401
  0.0279190390943996  0.7430958461270845  0.0046234720352991
  0.2368384030618183  0.7661752142201169  0.0136760643302731
  0.4974001872338568  0.7444762527099498  0.9924430090264782
  0.7462622838692430  0.7563085294315525  0.0024281895433675
  0.0009360840985524  0.0132892663150411  0.2351036452989864
  0.2374628022732430  0.0136415742696459  0.2343643729481846
  0.5051682187108388  0.0125722941697248  0.2533748119746915
  0.7647414798822849  0.9937225896951143  0.2531493619521528
  0.0027934276720227  0.2462653151427977  0.2513767486112344
  0.2551913083885325  0.2459513706337780  0.2491084839937402
  0.4962314986625089  0.2455558037129669  0.2457526257763243
  0.7565081086998835  0.2527061350109074  0.2584687586846056
  0.0032579351571800  0.4842929005773126  0.2646121659545473
  0.2395140018599700  0.5023522235339741  0.2580266280233445
  0.5077254423984379  0.4979198533410568  0.2712856641890624
  0.7391217538877095  0.5006180663980252  0.2580972561122699
  0.0044989253214836  0.7603313105998584  0.2461775460439680
  0.2478741250571801  0.7276105145823200  0.2615058264202546
  0.5014473091347353  0.7650906921487214  0.2336948733732551
  0.7414989445392068  0.7485994127154977  0.2567798081125751
  0.9991306720218478  0.0078280146668342  0.5017032424024179
  0.2601527336076821  0.9999844403643486  0.5033564415734434
  0.4894706488966935  0.0049691252547647  0.5023361665030405
  0.7568482790933353  0.9927658228410461  0.4880087768590841
  0.0013867313205069  0.2418270718864946  0.5143611466934248
  0.2552752852714973  0.2528592430279349  0.4987285324946863
  0.4956846208541017  0.2394796789291226  0.5151366115106015
  0.7451870776601737  0.2396949424150988  0.5077424718004572
  0.9914163075292217  0.5070296435464869  0.4993011200792651
  0.2576905359186431  0.4844111783264513  0.5192901497897456
  0.5059264328914993  0.5034619690379204  0.5069974479115665
  0.7526088888262346  0.5073191977277848  0.4817994893720864
  0.0060754178394551  0.7345755137764879  0.5231653786724698
  0.2650325054205447  0.7344853300668834  0.4946717368835811
  0.5159343028443155  0.7620998778967860  0.5077741788659489
  0.7434989848553566  0.7610453367027431  0.4991460475143900
  0.0050991476944612  0.9919001006609390  0.7497592876998352
  0.2533690805379965  0.9940671923378696  0.7579604533823167
  0.5171771117074822  0.0006823198253189  0.7498556187769938
  0.7579949319986542  0.9991783652456829  0.7532335774792269
  0.9833582506578263  0.2551344471629419  0.7569514858186818
  0.2440536163148082  0.2510867685837490  0.7423504383632661
  0.4886745706409730  0.2674218737003051  0.7353480970796094
  0.7602889335787739  0.2439887339833151  0.7585080654262700
  0.9954440419091894  0.5043640269014554  0.7568176872403202
  0.2461959987562103  0.5057621654029447  0.7525327933600302
  0.5090557042281367  0.4859948669492757  0.7634941194439699
  0.7558139617867208  0.4939245602148573  0.7412369457242667
  0.9991825720528401  0.7569105056881440  0.7291153618042916
  0.2411205453558498  0.7409291090026443  0.7452008578466887
  0.5011521161749272  0.7544116406919723  0.7416413056697090
  0.7370558246120328  0.7382638819365480  0.7512805077763073
  0.1445430557158641  0.1133279161899966  0.1258159515370941
  0.3923211785495702  0.1094375510964118  0.1172314266013358
  0.6151534062128792  0.1358549158597119  0.1166422437181822
  0.8899798979070637  0.1129002349161623  0.1088884514300577
  0.1299278121494352  0.3632111435505456  0.1280168486257288
  0.3660235660880050  0.3586399021379420  0.1463110029096486
  0.6394494205861032  0.3942317026434730  0.1153300999147278
  0.8822661186735793  0.3810841839861993  0.1127591852118804
  0.1447499957589733  0.6227417272063787  0.1201505952237895
  0.3753627354146063  0.6203712660827944  0.1110145885088262
  0.6167380772703092  0.6325109688246345  0.1163224245355993
  0.8727428908937911  0.6179382285338967  0.1191052429052530
  0.1039608908606096  0.8739605718281725  0.1376841419747129
  0.3679999414857911  0.8728737036127802  0.1207806086067832
  0.6195297342790466  0.8876157069382874  0.1343520762527584
  0.8696034258868893  0.8831560832658562  0.1212461645180956
  0.1325493104868651  0.1182629683941393  0.3657633151213585
  0.3766560511066500  0.1126245800386665  0.3800299037897487
  0.6214475745455343  0.1313475018951087  0.3812532456709731
  0.8622960703335528  0.1159613209296776  0.3852155681321736
  0.1213356907542177  0.3787425344386767  0.3730570760844493
  0.3474920202695357  0.3846422203577652  0.3740011245170338
  0.6365645086363949  0.3688723064468266  0.3701090432140313
  0.8825957664929704  0.3770426166749077  0.3815388603195923
  0.1234202532886799  0.6315169737379408  0.3705672870260736
  0.3764563182028881  0.6272626654544072  0.3692949226973479
  0.6336966605178613  0.6333003441409484  0.3747717394160503
  0.8759425985407914  0.6275129669428845  0.3708645893364455
  0.1177321951648054  0.8786403791747945  0.3753997136384313
  0.3680151956526537  0.8847869817744849  0.3815668374441592
  0.6197474650811067  0.8742648874186970  0.3795018755047573
  0.8845079543517852  0.8761105910482400  0.3684501067696434
  0.1174602083972217  0.1274555541674477  0.6420182659969355
  0.3698860578289113  0.1310512842213513  0.6194245354340996
  0.6051989647730001  0.1361236382488599  0.6328960104791925
  0.8709195388148355  0.1162477778728675  0.6265438608913352
  0.1225728493625647  0.3705660753858627  0.6238381075688501
  0.3920406360765356  0.3611784726298053  0.6255813544007515
  0.6304918692552762  0.3769697898774834  0.6242397537925517
  0.8851311592272063  0.3749973809692815  0.6094597446332721
  0.1328161963235098  0.6107515430020818  0.6319145624276757
  0.3863599599183152  0.6322823247334014  0.6328343195272845
  0.6316300363661060  0.6059037736424998  0.6301020211162160
  0.8825521199926020  0.6382582583312160  0.6233696319531322
  0.1262975802086756  0.8733600575217508  0.6189035522126816
  0.3808721929249184  0.8676581780481560  0.6354950335421029
  0.5959606471890982  0.8944428199258683  0.6321715643154683
  0.8714935429885421  0.8709324607862455  0.6336449411916276
  0.1160369643886526  0.1312846475981893  0.8778893892922240
  0.3717484834275522  0.1176096727252320  0.8789334620647113
  0.6122142327730951  0.1404541395180685  0.8861089976802913
  0.8704257515909126  0.1297841435259902  0.8839634674193182
  0.1260631507363666  0.3813559700589731  0.8720036044257221
  0.3691132569419479  0.3853116477646863  0.8760904412674523
  0.6326240602564032  0.3620072550826177  0.8750924386699068
  0.8654375652646666  0.3787861382730883  0.8689173473452610
  0.1291396748285960  0.6243929289474613  0.8744125645102953
  0.3755295716517472  0.6235784570044594  0.8744766895952902
  0.6350224844777161  0.6284915731745926  0.8722423428977262
  0.8791571466350629  0.6335216658696559  0.8722044069963654
  0.1378828044421701  0.8767323922997903  0.8646151814477344
  0.3819184965361436  0.8607097489042128  0.8894446467017736
  0.6282920880495040  0.8705701817427718  0.8805656641275825
  0.8698415465094004  0.8839098910879785  0.8670862396351980
