generated by phonopy
   1.0
    15.9923497217343744   -0.0000000000015236   -0.0000000000010772
     7.9961748610645493   13.8497811253384029    0.0000000000003944
     7.9961748610645493    4.6165937083140518   13.0576988688087816
Na Cl
  64   64
Direct
  0.9948245303014864  0.0072886537132762  0.0026824200799233
  0.2565002862258831  0.9935506730879253  0.0026696414518192
  0.5027290074911018  0.0044992419087111  0.9902839187156316
  0.7666803154693211  0.0123868311408761  0.9958672688228426
  0.0122804073051534  0.2661766783784042  0.9829516205929196
  0.2812566893916874  0.2415296837494125  0.9792146328952638
  0.5181810105253877  0.2356165044022899  0.0001148346396391
  0.7517778210475887  0.2619940122777200  0.9986112564647839
  0.0109750056529255  0.5053360653462823  0.9875111889317906
  0.2605730390880368  0.5058561501608881  0.9931749339014870
  0.5093496235479400  0.4948167830694689  0.9925404913206315
  0.7517869436005110  0.4958251583802554  0.0044026700315350
  0.9989914523517484  0.7781173446000074  0.9913675940802272
  0.2607679569387340  0.7484885682144476  0.0023257776447194
  0.5048085806017076  0.7487483574066890  0.9987205851871064
  0.7672082857808262  0.7389693127735601  0.9862489294506660
  0.9973345569315960  0.0120601471934440  0.2442138048984760
  0.2516405503060029  0.0177639411260714  0.2444441306048440
  0.4821190111861877  0.0043147494741956  0.2607948530062703
  0.7745849133912632  0.9806358986363769  0.2513138641295841
  0.9944908503184974  0.2529209774160464  0.2717210647519303
  0.2569658201037203  0.2340390541064803  0.2649238262836434
  0.4950543018246334  0.2566341605416373  0.2488397484404431
  0.7553692587419590  0.2506893540487149  0.2618011610541276
  0.9982809460526907  0.5044600076510407  0.2501352544186106
  0.2432584264386616  0.5103802824151600  0.2396049907264732
  0.5041092446781437  0.4893907493512029  0.2458672334463183
  0.7512488811404344  0.5146165375260693  0.2454926762252562
  0.9768146954447258  0.7627793902840723  0.2546344661460012
  0.2491214594925518  0.7488084646274957  0.2493099070800250
  0.4837923429450441  0.7519181425356619  0.2565270907783016
  0.7340545035540914  0.7547678755272624  0.2609364252904807
  0.9952567761545151  0.0058067170161429  0.5067427654684452
  0.2480548749478471  0.0013495940228377  0.4997915914945343
  0.4990495731933640  0.9712126981478033  0.5123064097106280
  0.7505842867856982  0.9885040184494606  0.4875515501221040
  0.0062741506448612  0.2681718582855472  0.4857122732879490
  0.2474156965297436  0.2643979255374732  0.4952749471290719
  0.4791224946080923  0.2668354440094089  0.4968793831853384
  0.7336170386496982  0.2381344186478282  0.5067192058446598
  0.9894608036638152  0.4927186192887570  0.5120522533506531
  0.2547970949750936  0.5042527978329339  0.5002699939162244
  0.5077375153153314  0.4812610846099828  0.5035915094457906
  0.7652842316090870  0.5025851610769210  0.4957435790862042
  0.0139602155468136  0.7579264240341176  0.4904622934259629
  0.2467618041723281  0.7512701961513930  0.5046220960596907
  0.5053304342144651  0.7519852250543936  0.4929334503253414
  0.7364659626176716  0.7556627510138508  0.5109681625971936
  0.0234651763306094  0.9957049392057041  0.7292926141658720
  0.2410164626152010  0.9986866114097031  0.7615568713208055
  0.4972241900697387  0.9950217944881353  0.7724467376822109
  0.7548818058834795  0.9968732590612754  0.7420815168692493
  0.0099952185372491  0.2454267854231579  0.7328878481319864
  0.2400886888793669  0.2394068065761110  0.7540337488042714
  0.5197252275801296  0.2302233479840223  0.7479293739652884
  0.7517827192443539  0.2600737879383946  0.7396758111039248
  0.0052718435312546  0.5024640490260996  0.7575763795910133
  0.2565859280830857  0.4886187541734212  0.7485950333329524
  0.4935451436043421  0.5038252605330940  0.7549928046572971
  0.7374777778532435  0.5145102625998497  0.7412327267884866
  0.0133190840338827  0.7537065547276047  0.7357469457049740
  0.2572867130027439  0.7611006811138852  0.7532848631683774
  0.4928564498416450  0.7472386477497117  0.7605176802233324
  0.7590101654792645  0.7514485780953963  0.7463303147127204
  0.1367052262871404  0.1243513878759377  0.1101928249512002
  0.3661446683667879  0.1264526734357830  0.1259909360923064
  0.6266415750965791  0.1336402512890540  0.1163277332965517
  0.8575867144862157  0.1410722863417832  0.1208471444307088
  0.1482652669572684  0.3710623905008255  0.1257351826534553
  0.3811631061397835  0.3812424232121427  0.1246492010747151
  0.6220107073316196  0.3738427532781561  0.1225173046479160
  0.8551453553794764  0.3750323729764283  0.1297062881926113
  0.1124232780372972  0.6087461913679967  0.1288289894835402
  0.3607442260426841  0.6451548747895801  0.1246213640297678
  0.6152039554444620  0.6238401543399502  0.1238385214599151
  0.8816398838006951  0.6263690187923362  0.1287084165898411
  0.1063751270608806  0.8838695428627563  0.1275362471358287
  0.3665903535465909  0.8967376323864376  0.1167125534183917
  0.6400580994256042  0.8637606682042119  0.1160974886138373
  0.8655879019626587  0.8804882028080175  0.1196773372155583
  0.1219964437713514  0.1129557876473541  0.3887486261456475
  0.3879549331759017  0.1172163766870089  0.3733452197265912
  0.6368407420974209  0.1318179159393230  0.3660482513395411
  0.8710709450357187  0.1133640702226386  0.3858392745085947
  0.1271103412775259  0.3853665222814122  0.3693174409960320
  0.3753480477393656  0.3677603943151161  0.3748873596142255
  0.6224716856521068  0.3812750316282530  0.3656964021380376
  0.8777091496855404  0.3720883798949669  0.3756774707046058
  0.1235297058778637  0.6266026480040887  0.3765089944740183
  0.3768572488760717  0.6262858613038207  0.3652896063477432
  0.6182042437099855  0.6248614706266304  0.3764977075084573
  0.8757959726017613  0.6256145521001306  0.3538546527991367
  0.1193139796701927  0.8784669926133988  0.3862734323284117
  0.3754032786098582  0.8805688690656892  0.3657041758438855
  0.6182380474902696  0.8747442808280603  0.3773113871024154
  0.8821621107165840  0.8644264298130637  0.3735959321534265
  0.1374070855819584  0.1109410581637623  0.6285236461463315
  0.3875695769108040  0.1209946238054644  0.6153213094191112
  0.6401672526462383  0.1089452080275381  0.6264548979203338
  0.8712468543251592  0.1212559626974789  0.6213401020274878
  0.1196595630886873  0.3741208164165899  0.6307318698842561
  0.3758446349678125  0.3852345947736640  0.6162251282534931
  0.6307850056211836  0.3803020020399487  0.6152611499283342
  0.8663100555669689  0.4036851911110635  0.6129696915059873
  0.1298794571196158  0.6310021624600860  0.6219931224187294
  0.3807459185443942  0.6265518465285324  0.6149676913914097
  0.6220270019595889  0.6187264228507845  0.6285594568886010
  0.8780530313863055  0.6263854977043759  0.6342432255414532
  0.1204448055139871  0.8733352565248791  0.6360529247486237
  0.3780261050872396  0.8808146154231843  0.6313252214913445
  0.6347391697726179  0.8774931756566839  0.6259868406177458
  0.8790259448731210  0.8738131050468200  0.6120849394768472
  0.1316932022322890  0.1190425246888985  0.8640365287863553
  0.3618611286214860  0.1228057817855743  0.8907101996231608
  0.6296241423527500  0.1251666138627222  0.8912683030888281
  0.8731740935216752  0.1308294589839222  0.8637709229855750
  0.1368714194347243  0.3625172374297193  0.8777222891371435
  0.3829752501167779  0.3643106972969917  0.8722885001320800
  0.6122727792112294  0.3771740956872909  0.8814407378244723
  0.8589315681747207  0.3791309495659664  0.8872466370792569
  0.1058206082194976  0.6335194874257155  0.8820688537134279
  0.3615752518813276  0.6380852589501832  0.8721852745733767
  0.6252638242643872  0.6302143126394556  0.8617741567137809
  0.8716437328630430  0.6088442922948845  0.8802435745709850
  0.1315118138293767  0.8764398810869891  0.8753415706451844
  0.3746421142077001  0.8652160696430827  0.8772736497660616
  0.6304166017288687  0.8774664289521410  0.8860634532586288
  0.8650681866976193  0.8852567000551759  0.8657084427091465
