generated by phonopy
   1.0
    15.9923497217343744   -0.0000000000015236   -0.0000000000010772
     7.9961748610645493   13.8497811253384029    0.0000000000003944
     7.9961748610645493    4.6165937083140518   13.0576988688087816
Na Cl
  64   64
Direct
  0.0024093572452564  0.0004869219914534  0.9789848224308473
  0.2458655618124299  0.0087499194779865  0.9876283959204105
  0.5024615525272561  0.9972529237058861  0.9975822627929923
  0.7571201653167925  0.0108527729892176  0.9808285532834874
  0.0203241915303103  0.2393579750189609  0.9989266102884256
  0.2379773610592870  0.2433153172196049  0.0002249206228435
  0.4913697016562725  0.2461971537998705  0.9947315517385408
  0.7301570541757976  0.2708881781787922  0.9886184661437625
  0.9973090941178014  0.5011362105190886  0.0017564494077033
  0.2396130983618190  0.5009829098463671  0.0024515483197902
  0.4802781997264315  0.5160087049544210  0.9919947964560393
  0.7506694446812279  0.5091912771537902  0.9975541581417605
  0.9995238871645559  0.7438893454157459  0.0144639212014448
  0.2519568791367314  0.7402006553633286  0.0101661573987943
  0.4820190439789870  0.7759609213893491  0.9906575838206383
  0.7452388247756179  0.7643604595668169  0.9803980301162121
  0.9974731116295681  0.0206278120330573  0.2388246816078687
  0.2606794717050031  0.0032045640714435  0.2348466896289078
  0.4888318659970322  0.9984271704569886  0.2694222502949558
  0.7355781004269284  0.0091126737809723  0.2444594092690738
  0.0206387866176627  0.2463058419852360  0.2440597720895839
  0.2438091241997683  0.2599977552403041  0.2492765299715724
  0.4774165939797373  0.2665752641128557  0.2507766602726551
  0.7563419720512226  0.2529389467265519  0.2371780767350313
  0.9983252743844616  0.5171270392355497  0.2360142632730404
  0.2291009372959944  0.5155029166557178  0.2589947910489346
  0.5017714995707656  0.4986825231892087  0.2545706939703645
  0.7347685230907092  0.4972659284685945  0.2628585162848900
  0.0055292906983982  0.7559180582720465  0.2261891800712559
  0.2390870134323172  0.7655494475129461  0.2442298692638916
  0.5079303017194151  0.7377820578918522  0.2483391851763088
  0.7565604422073405  0.7306821072194642  0.2632709688954877
  0.9959354072427496  0.0117894853833735  0.5119975989034776
  0.2680865754057009  0.9714334726522954  0.5049524531670010
  0.5324047877349994  0.9761596443710298  0.4915242841225476
  0.7413279446457792  0.9928503368942935  0.4992884816021068
  0.0009868091522700  0.2452125362432391  0.5034714152763412
  0.2514085725527632  0.2486894809905309  0.5044187392469586
  0.5008517606514027  0.2449723072745091  0.4865960028214310
  0.7597864787075144  0.2425703184291790  0.4960815957815401
  0.0029262929709781  0.4979956325534529  0.5008912343492179
  0.2434749720215039  0.5094194859488687  0.4890652065943323
  0.4998421571106135  0.5124765801618285  0.4878650603010490
  0.7577966094692337  0.5042836052583669  0.4978841087043377
  0.9981117880660543  0.7464340469486077  0.4947302519365800
  0.2533677250332133  0.7621431830365062  0.4828392898587144
  0.4989892122408393  0.7678008070765018  0.4739052123425659
  0.7566919005883641  0.7409218121905370  0.5090296260838540
  0.9944120435683563  0.9967244103277330  0.7690355723350175
  0.2600988109877670  0.9834476025736650  0.7445809264877310
  0.5100496985882277  0.9790614378495031  0.7557661873948640
  0.7593332195553082  0.9897420012324993  0.7438545648564113
  0.9925961358318370  0.2450192689361021  0.7462922684023691
  0.2523531347128853  0.2451394938452079  0.7634188975422296
  0.4946864033078125  0.2693113731775768  0.7437396248182674
  0.7434137770188231  0.2463676888904861  0.7456551494733571
  0.0180112888599706  0.4691268397746834  0.7491818748037480
  0.2482814508170562  0.5059135232444980  0.7447416123654864
  0.5156967830386333  0.4928747930775538  0.7489964514636631
  0.7460414741805913  0.5025333540913727  0.7528055432215894
  0.0021600655407653  0.7637799575217767  0.7351343167452674
  0.2445723496358228  0.7648809128952919  0.7332958501476289
  0.5067837422586949  0.7574207004424742  0.7524293946275395
  0.7408459966251211  0.7652679986323148  0.7533331455618189
  0.1215684810023135  0.1310291741517559  0.1249084897766233
  0.3659603443232859  0.1404973467453715  0.1182227361442033
  0.6379676363454976  0.1203264299340814  0.1263859141265360
  0.8756332657999514  0.1261036381486957  0.1233687689371239
  0.1259299582894306  0.3613889044021416  0.1490149652956085
  0.3818403802767824  0.3832004149534919  0.1244032477532223
  0.6148424225303366  0.3725455679456284  0.1474801148619858
  0.8584801269433974  0.3924787392250236  0.1149228841708555
  0.1393507306059690  0.6132462954922352  0.1361517096976847
  0.3809681467216140  0.6103094360955850  0.1137658755544307
  0.6015767055104762  0.6383642051329785  0.1331048375295906
  0.8836542283558747  0.6191150307702276  0.1275264626740086
  0.1279778470885969  0.8725657249167411  0.1170779934815798
  0.3815921759972793  0.8797667873788811  0.1155731046814036
  0.6103467426403789  0.8779937006086790  0.1330331789567583
  0.8776870275468112  0.8649717345363880  0.1275417670147484
  0.1130523689872120  0.1422483257535170  0.3879535410518043
  0.3717931951437258  0.1218601794553936  0.3670899307760623
  0.6245434018037479  0.1128084524910702  0.3713384119425851
  0.8753616047491422  0.1336209625398827  0.3782970874691755
  0.1350506973644359  0.3714252175426440  0.3719121195935617
  0.3671576734687085  0.3671384976011999  0.3874634038769310
  0.6262815870089913  0.3770171551255296  0.3706444594866391
  0.8760626118656781  0.3702296873105583  0.3884036514015771
  0.1309554082037206  0.6245533493513722  0.3690711353714348
  0.4023470142029661  0.6111232021663670  0.3652990735620311
  0.6299832695968264  0.6283712149509455  0.3810078609771774
  0.8893166189883940  0.6237557984111755  0.3745887769019228
  0.1278706705056011  0.8763874153768945  0.3839721757501063
  0.3699173109167374  0.8777487630108295  0.3726749052077820
  0.6338063428625531  0.8663054633000979  0.3763287907403409
  0.8756303801779893  0.8881198604610241  0.3611867135567847
  0.1376171002402654  0.1033637972786445  0.6408423446343253
  0.3761759399973138  0.1272049372282131  0.6165754043408572
  0.6341735312540331  0.1224592887294869  0.6208952741915711
  0.8777764417017285  0.1317684251969055  0.6285795598836408
  0.1121433064668058  0.3753910265618806  0.6192843770696694
  0.3702665696768491  0.3931754463965069  0.6217259269567269
  0.6155193710691357  0.3772678560580917  0.6225057567804905
  0.8639704953827670  0.3832951497914533  0.6192566943690749
  0.1250448183338118  0.6145703268335158  0.6078986219953014
  0.3663201047940912  0.6326245957564589  0.6296684093501616
  0.6359625988759613  0.6254197593525390  0.6090892109212234
  0.8770149998639098  0.6307559600522490  0.6217357348127036
  0.1109582005791243  0.8906484677094064  0.6417761753139907
  0.3810902616364579  0.8693148176972059  0.6218626110041510
  0.6182419126418974  0.8652078927122149  0.6281294928986408
  0.8722771598929228  0.8778302912368259  0.6201084954484974
  0.1194121863447403  0.1258570007159884  0.8786162481919413
  0.3902575066377570  0.1265387233085777  0.8713280965476090
  0.6269105457720880  0.1077812783683816  0.8821877353810492
  0.8906414790754404  0.1140704437532551  0.8678375411453286
  0.1200129756377712  0.3739974720293865  0.8868346352340486
  0.3760256612857500  0.3814447715911240  0.8613716312122824
  0.6153147285982224  0.3680271919320868  0.8819867539307232
  0.8582871044680196  0.3893403926653659  0.8660720255048238
  0.1588537135117050  0.6128568902469328  0.8626148261705268
  0.3697586826298293  0.6235992643378527  0.8778777749511700
  0.6074004889528127  0.6266118121746109  0.8731491473395534
  0.8653738875914871  0.6129422044470743  0.8820260772194710
  0.1442491734037198  0.8752316076994185  0.8569853131230702
  0.3712465602645575  0.8882773661407586  0.8777873206029162
  0.6333673680817624  0.8791843433962991  0.8656303108030176
  0.8919895531041880  0.8638426658924416  0.8805871456658803
