generated by phonopy
   1.0
    15.9923497217343744   -0.0000000000015236   -0.0000000000010772
     7.9961748610645493   13.8497811253384029    0.0000000000003944
     7.9961748610645493    4.6165937083140518   13.0576988688087816
Na Cl
  64   64
Direct
  0.0043889134093068  0.0040812949042479  0.9853444658506025
  0.2591252527811267  0.9885963532146417  0.9968632589080701
  0.4992410809480146  0.0112407012217129  0.9853144962289093
  0.7549145535628758  0.0075940993312929  0.0084858911928099
  0.0178454586903065  0.2491388328336215  0.9862971259704495
  0.2427507001252495  0.2485227846604274  0.0024667990251556
  0.5161195286604383  0.2396456974492007  0.0031015793947586
  0.7367524024916632  0.2465888176794633  0.0087405513829542
  0.9809377562772079  0.5077178756967800  0.0091239923909489
  0.2435219385169127  0.5031583678334965  0.9986868212905698
  0.4888570558136514  0.5053065847838260  0.9998686423215510
  0.7631095956332518  0.5250927482744870  0.9804251513571371
  0.0175442297536407  0.7496262232636646  0.9932740914452267
  0.2633621661757975  0.7534109940433771  0.9879357026547032
  0.5005043680402714  0.7501175861827497  0.9982037889484756
  0.7518116327558849  0.7512182251216020  0.9952232163804267
  0.0030029073080419  0.0022197437974677  0.2263907714813246
  0.2442088120034456  0.9891216243767336  0.2658822219650835
  0.4804838770581591  0.9988597250143409  0.2631255405701622
  0.7259306168591088  0.9888382674452567  0.2861939248021561
  0.0081279281259480  0.2419686262011765  0.2477960536832345
  0.2577590841786097  0.2460342829734950  0.2520167383166373
  0.5046848654168653  0.2429281867655255  0.2560041789657394
  0.7468773390027156  0.2509998054688087  0.2506272005213984
  0.0058206412400916  0.5003630603269610  0.2543579446905185
  0.2491393396357474  0.4893858409328539  0.2582918047411245
  0.5082511056364707  0.4949893201051438  0.2498273619211205
  0.7557283889794681  0.4956767880701802  0.2501153227786097
  0.9811155078354110  0.7437480771614852  0.2746009854033964
  0.2607905257580263  0.7384983094068315  0.2585552965093031
  0.4957187795954788  0.7599492205049476  0.2514778975109184
  0.7373479348353803  0.7452039058055177  0.2666980571019993
  0.9950040086833473  0.9889780902549680  0.5153002130986405
  0.2466173498025473  0.0032670635474687  0.4871211901433105
  0.4998216395626306  0.0056182193158336  0.5035388480663272
  0.7365119562637374  0.9956586180199452  0.5035776059012796
  0.0019327159499699  0.2324421047815727  0.5125068998837409
  0.2496857106908457  0.2433508416820086  0.5121795974251595
  0.4830067082878374  0.2674463040496514  0.4954044172185490
  0.7504964902598856  0.2701449140461467  0.4832499793490019
  0.0107790469680506  0.4887800796094972  0.4927943441272061
  0.2576058345053650  0.4900162524796584  0.4968726627869656
  0.4955523936302006  0.5011807781348734  0.4859797232326871
  0.7507259443442220  0.5011453756953694  0.4993110521096940
  0.9946166994446027  0.7481166252409897  0.5183206675621622
  0.2594201607551904  0.7643801093085999  0.4905124795899248
  0.5029492106502030  0.7336158638242101  0.5131571466413852
  0.7554840092671395  0.7384197061502800  0.5019057185108814
  0.0015200178452726  0.9949087489694514  0.7610506378275264
  0.2394297924056694  0.9993200393243904  0.7622775070905438
  0.4980389842981057  0.9914615153077810  0.7530628438127785
  0.7549824167245575  0.0044835835042742  0.7263787137925422
  0.0021714010696814  0.2562026876256914  0.7430054546751667
  0.2556313732194423  0.2397204103488238  0.7557722145274872
  0.5013199664665653  0.2476265292551165  0.7551123345141301
  0.7562938037179658  0.2520154374544030  0.7555345824277415
  0.9955289453506554  0.5176276600886034  0.7476732884435773
  0.2235693332384937  0.5074690648061353  0.7739457345793768
  0.5100352467280674  0.5099767284509451  0.7349157194977742
  0.7634157549686827  0.5040687900352430  0.7328037090638502
  0.0193705638535890  0.7469278843228713  0.7391235162352608
  0.2531872169761081  0.7606388701985032  0.7601241974178322
  0.4810240638470243  0.7671905464799205  0.7302827072127852
  0.7451780644631365  0.7668525803080883  0.7375762178299127
  0.1260948940597637  0.1230495440362760  0.1209374826640833
  0.3840568640724623  0.1217022123082557  0.1344092509919737
  0.6430020263258196  0.1270396428853136  0.1111196339614508
  0.8883309858041220  0.1270776090774382  0.1242459621585379
  0.1242053856051779  0.3668274172455333  0.1305830077537526
  0.3759226720502728  0.3618701366726194  0.1356015408439906
  0.6244456463243647  0.3865679456436241  0.1191975219974360
  0.8754045088935231  0.3602815566423900  0.1450602396576353
  0.1343896274540175  0.6479037944675632  0.1140785138732365
  0.3727892252369994  0.6161593558900393  0.1450674336449607
  0.6371967237606850  0.6148966420569972  0.1125113829320839
  0.8838458221586049  0.6187795869145177  0.1269883629208799
  0.1235117607091263  0.8755634171859927  0.1410953620984608
  0.3771964211290073  0.8551170404362486  0.1232903734188317
  0.6384479998095848  0.8749160423514938  0.1213281353476676
  0.8658543736096576  0.8802519174793848  0.1352754651519654
  0.1318048617699690  0.1313243774410600  0.3660171930338526
  0.3828809583264066  0.1261572340785092  0.3685105823667789
  0.6248610526836932  0.1279037277640127  0.3642822427100595
  0.8784514307132013  0.1197936608634497  0.3880515887997529
  0.1219321038816197  0.3777831321226567  0.3735668639198576
  0.3806197597971709  0.3717614544899215  0.3643951645745686
  0.6298183681667655  0.3656470059822293  0.3801543190304233
  0.8887628428979490  0.3782711364519948  0.3593908905058471
  0.1333675712816258  0.6130112437250841  0.3782281574534018
  0.3932747597771370  0.6389488420176916  0.3543688608456275
  0.6190263673546080  0.6051201801175885  0.3990031449718897
  0.8641716055426261  0.6254584002856098  0.3666988661271507
  0.1255066126788432  0.8804044021553012  0.3813200131540735
  0.3769235583651730  0.8654214648391727  0.3844247978330794
  0.6215936798421213  0.8826708963788233  0.3782081177937502
  0.8575718629342860  0.8844675943746786  0.3694773571490966
  0.1256309555256975  0.1339429200126006  0.6135342334990167
  0.3764048145030007  0.1209350675132474  0.6265160396802376
  0.6308357357697043  0.1325346398114318  0.6187111974989036
  0.8801105850444427  0.1149730507664289  0.6263507816720527
  0.1202105045444412  0.3870122505564341  0.6278520881712338
  0.3635754572256126  0.3743241147492987  0.6276770026217486
  0.6489831490385484  0.3715006586560699  0.6254686180133615
  0.8762793152010483  0.3832434528034763  0.6337844051491272
  0.1382901697805914  0.6100358288112108  0.6195126149905367
  0.3780037657814987  0.6253261929677131  0.6273538882871355
  0.6189559402833538  0.6031173992146738  0.6455526717418547
  0.8741202070431759  0.6400657116013957  0.6069186774460494
  0.1233016530442683  0.8784920555583532  0.6286409501350972
  0.3782679822723050  0.8701811031844995  0.6244576906901521
  0.6229794383616682  0.8769307328894534  0.6287626376745971
  0.8696542430313423  0.8704609461159973  0.6311931860332890
  0.1261250687737608  0.1207124058037576  0.8737593530073685
  0.3677625887541621  0.1312520081484879  0.8691280031337132
  0.6272169679251689  0.1369639574233594  0.8699942332702020
  0.8704429052684597  0.1503060041902691  0.8540675989322201
  0.1242351110508690  0.3667382456616647  0.8841118125961018
  0.3820778532968059  0.3758186281767195  0.8527378159374436
  0.6344089041359122  0.3716570095348429  0.8723359517477985
  0.8665398336358878  0.3791536496040617  0.8862021086913777
  0.1229411383124985  0.6314386156364347  0.8725393870165307
  0.3634142899296426  0.6346417147814376  0.8597390012075883
  0.6094783184937504  0.6309522548756339  0.8844486450337670
  0.8609730080552018  0.6206177684925058  0.8866837646299248
  0.1263093567738977  0.8823614526802162  0.8745958604445953
  0.3718088627094754  0.8845739218691588  0.8580984297438543
  0.6240688510344308  0.8769740367798309  0.8824626566194134
  0.8637013846404011  0.8862615538473427  0.8837417404906305
