generated by phonopy
   1.0
    15.9923497217343744   -0.0000000000015236   -0.0000000000010772
     7.9961748610645493   13.8497811253384029    0.0000000000003944
     7.9961748610645493    4.6165937083140518   13.0576988688087816
Na Cl
  64   64
Direct
  0.9932152724248781  0.9973425075067361  0.9969605588990046
  0.2569019717632352  0.0171794746411034  0.9952177626898444
  0.4918685344711401  0.0151354300014603  0.0033401013281970
  0.7590309904739040  0.9924081914307764  0.0031702788925380
  0.9959679402352212  0.2487449532500112  0.0031640534802018
  0.2392811147692832  0.2617961499992459  0.9894495611154706
  0.4945503345865554  0.2569508212138935  0.9889667092221780
  0.7628733352449524  0.2443031736363667  0.0030039322003571
  0.9889598199788280  0.5138292029795793  0.0128682254289520
  0.2638306397790212  0.4836022331431561  0.0124070456507163
  0.4924762032229257  0.5045759743778406  0.0001492499884416
  0.7251287651582631  0.5182912407721523  0.0209558294560690
  0.9973386179051811  0.7543158675079988  0.9931586755357769
  0.2480396827966559  0.7341844468534120  0.0097952767685748
  0.4795062958422367  0.7603899936563797  0.0100879969632065
  0.7396777475181080  0.7468259708028516  0.0031669044286209
  0.0020275990496365  0.0108410172829564  0.2496755558005114
  0.2406816461762262  0.0046059454123204  0.2642187984080424
  0.4944641099104445  0.9928906053419532  0.2488371250857498
  0.7660803234035789  0.0027711047655635  0.2382175086211040
  0.0054830306766974  0.2355407712497698  0.2593870054348774
  0.2459081608674847  0.2371382404752618  0.2718357805485579
  0.5164965303711354  0.2373038657021818  0.2528749608057494
  0.7659002334890939  0.2444176140377170  0.2297439181880320
  0.0032727272921800  0.4950427232105362  0.2278139256758167
  0.2590311458737171  0.4840373505099110  0.2499324759335904
  0.5045501314616155  0.4997492719549191  0.2249291299111112
  0.7710754187087060  0.4952978947414362  0.2337388692161143
  0.0003156084427594  0.7502767223508267  0.2594002214195244
  0.2613128561999284  0.7497091586910563  0.2404296380413943
  0.5132822960982859  0.7478610290530637  0.2530404906996386
  0.7220321609245268  0.7457578316666982  0.2710275639172525
  0.0153110328484683  0.9852319748682804  0.4941426495852279
  0.2342547891471211  0.0114129056835752  0.4992793452581726
  0.4972699992781914  0.0133065166352991  0.4890889990184689
  0.7307411890542207  0.9889153555245767  0.4974404126318906
  0.9903222395492202  0.2392034145763869  0.5212348657829985
  0.2460510329077578  0.2717209589527460  0.4965524356331767
  0.5076564673869410  0.2467350057203057  0.4807874183743596
  0.7577661069836122  0.2505250216106854  0.4963260415709783
  0.0051207231064616  0.5164541784958812  0.4813125372255473
  0.2557324376535679  0.5065887337860995  0.4915368730297754
  0.4998429209243016  0.4929116409320191  0.5016193205860808
  0.7521448856812770  0.5059210548637001  0.4962736880243330
  0.9987924286844804  0.7662881531351420  0.4924184754071053
  0.2448852297154704  0.7507915612554565  0.4916872380919584
  0.4827908259159380  0.7493714237126352  0.5112885152805817
  0.7416518710370693  0.7435146331844913  0.5004812810971725
  0.0017441701925325  0.0063415551132738  0.7549500578339724
  0.2631995479843976  0.9961917733294616  0.7422274952424616
  0.4986020780120743  0.0124219492430396  0.7395804063246716
  0.7507106514408926  0.9997873248307065  0.7479658162070395
  0.9891530815877405  0.2323272389460543  0.7673065652672518
  0.2652386375534234  0.2454833333433953  0.7474757369469598
  0.5043859546379862  0.2560810142702197  0.7298048730800070
  0.7500033754935408  0.2556305551953865  0.7402773500939550
  0.9988362230395635  0.4857123349116201  0.7596118734565387
  0.2401452263283754  0.5004460721624914  0.7561404459125309
  0.4978864838175630  0.5067469288745994  0.7395938140272559
  0.7666048663583652  0.5010729080409533  0.7375337009539953
  0.0117942526410837  0.7422524862059968  0.7485448481675213
  0.2544339235149240  0.7555823259103819  0.7355362887753429
  0.5080116661814875  0.7440488084053405  0.7536813991961329
  0.7469959652286406  0.7546167026544943  0.7504691331126658
  0.1249361993091190  0.1159530933957108  0.1300217466480282
  0.3814386077325406  0.1275240990496019  0.1177528936823067
  0.6321759093284175  0.1314735342562989  0.1244149832018127
  0.8799871835482206  0.1291348834093692  0.1239299196338585
  0.1304359148911146  0.3623637032282840  0.1389286686879072
  0.3778852203723334  0.3803933841766973  0.1188647732659318
  0.6262152554060156  0.3755355430354141  0.1248416976868690
  0.8850042234177694  0.3785537017925631  0.1177111699252313
  0.1356223624955543  0.6121336329513186  0.1330270611004707
  0.3777108988224642  0.6255272273194212  0.1262141826424050
  0.6432670300178244  0.6221402000664381  0.1068329829520391
  0.8698372482427391  0.6210084777469272  0.1275913840160865
  0.1252251457357649  0.8834269658769146  0.1367288685568077
  0.3719271486289248  0.8672652357118179  0.1394794640484270
  0.6364636878843695  0.8741193719072370  0.1127593381297588
  0.8649291019840940  0.8669874559571877  0.1370323089793821
  0.1373586628068660  0.1252087038176451  0.3668030168960731
  0.3736219719950269  0.1368347976335476  0.3665825794987423
  0.6164449525420185  0.1358695380717902  0.3714660775440451
  0.8694693430206242  0.1182484753550770  0.3777552817398664
  0.1144661577770520  0.3789346082501543  0.3775130971950156
  0.3784854393704580  0.3663932697234865  0.3792871265954241
  0.6265391193626868  0.3637722534634678  0.3804191494006205
  0.8649241693822005  0.3686621637633798  0.3911771708807271
  0.1322533069355132  0.6511566582046768  0.3626791155851783
  0.3460512823528683  0.6419864008928259  0.3760479865144185
  0.6443111084540569  0.6210087041671376  0.3648250190114232
  0.8709378154751370  0.6135393484146601  0.3811365499301825
  0.1161501725536099  0.8879981326952558  0.3761723909139019
  0.3705362013828315  0.8779058801193957  0.3822199166060778
  0.6293556656753295  0.8825593269812119  0.3726312358845359
  0.8871668427550210  0.8745108095363292  0.3688829761992818
  0.1266909552312794  0.1271250059761170  0.6271263383540737
  0.3614138848917201  0.1326885607363678  0.6338026115060097
  0.6181963344624810  0.1328050460725875  0.6226227988688631
  0.8828558109080474  0.1029164168749154  0.6274791474290845
  0.1331309754560669  0.3645160317531211  0.6296879160795977
  0.3957641731660911  0.3695423522739302  0.6292365641279540
  0.6287219516925634  0.3732077477496476  0.6322037780640797
  0.8852037958660969  0.3782493771852111  0.6238380037216354
  0.1265357785175201  0.6230111425541898  0.6375805035948029
  0.3767209844046051  0.6262957567892184  0.6171871836933982
  0.6087236601666374  0.6128986506578344  0.6284431114895142
  0.8611014525620301  0.6213624594381435  0.6185691082609708
  0.1380722168914167  0.8806372210313766  0.6081017927959891
  0.3814989322184428  0.8614097127732228  0.6393774062003128
  0.6264960337947095  0.8893022862312765  0.6281715801209707
  0.9121006441285477  0.8534148191154400  0.6109492857279397
  0.1040908308518831  0.1370647318896742  0.8864428539252311
  0.3687548780685533  0.1378383731047293  0.8680590272854145
  0.6138546767214679  0.1541256208087547  0.8642784870926263
  0.8635492466520240  0.1230864803745001  0.8898572328302157
  0.1287605765317332  0.3671370680538509  0.8754573437790685
  0.3905710207491995  0.3584685986827857  0.8891247504896632
  0.6223540998848189  0.3695293799639411  0.8795576032300231
  0.8675414985329613  0.3772139133150443  0.8807336757987456
  0.1117640558322817  0.6416383802492192  0.8626122870490436
  0.3741509174835930  0.6297694476857323  0.8658165767605488
  0.6137061208627561  0.6368056864797642  0.8694787950336197
  0.8775296972916578  0.6268201088298511  0.8688159559452112
  0.1313307968688942  0.8832247930003089  0.8689343566062221
  0.3763256808246476  0.8724448059734959  0.8746517782473537
  0.6209308618021508  0.8660600901515441  0.8978237692628881
  0.8808549925743701  0.8693635575381276  0.8715896494540371
