generated by phonopy
   1.0
    15.9923497217343744   -0.0000000000015236   -0.0000000000010772
     7.9961748610645493   13.8497811253384029    0.0000000000003944
     7.9961748610645493    4.6165937083140518   13.0576988688087816
Na Cl
  64   64
Direct
  0.9989311055961797  0.9917229632691505  0.0129111405760622
  0.2545946021918269  0.9952213396572808  0.0089247643609193
  0.4973666146656285  0.0083438612796976  0.9963610124060985
  0.7401749060307369  0.0090122743408638  0.0029550663795610
  0.0061051730294912  0.2470004162961366  0.0129958411038694
  0.2488135164516080  0.2593246131429599  0.0023911637316161
  0.4960192822621466  0.2357086313932366  0.9891433715946314
  0.7397482817564853  0.2685685399792607  0.9930562935930538
  0.0143175146157223  0.4797076993111947  0.9899477881025550
  0.2325197138927596  0.5124717705627414  0.0059899747207745
  0.4887720519465774  0.4969639657077911  0.0082416436830812
  0.7351381721100630  0.4999368783861456  0.9954410750003341
  0.0014874684658442  0.7448173583046680  0.9962984590087698
  0.2285248745025081  0.7498367562500149  0.0294982123929449
  0.5205318421390519  0.7303563716749020  0.9890385144364120
  0.7385084326301218  0.7660998701942938  0.9909072713268107
  0.9863576088909726  0.9895934399969083  0.2612677949081403
  0.2588586513339010  0.0091213057238578  0.2339960953454243
  0.4906709633002798  0.9989150720047659  0.2661813886753266
  0.7407993853790413  0.0088545405013452  0.2452419930411110
  0.9958005132043964  0.2444749190968395  0.2626758341974727
  0.2453173677104503  0.2629739595070484  0.2522390606550447
  0.4791763230894001  0.2703543197293368  0.2474439545637047
  0.7637601817565434  0.2413699847299782  0.2450769355949952
  0.0126600645660926  0.4840749653844718  0.2569488651029657
  0.2414818547677068  0.5087252584482166  0.2577575872762056
  0.5089020551132255  0.4992021369344155  0.2563280025426004
  0.7526474548132072  0.4930073571536728  0.2383071607210874
  0.9813458174393931  0.7570689075220974  0.2487341607855299
  0.2409699581288669  0.7527364141456486  0.2568317728027504
  0.5090056321380844  0.7170868657781542  0.2440782563233575
  0.7553343358329022  0.7244029266797483  0.2533604337000558
  0.9935597883257585  0.9986117136324488  0.5154113592898809
  0.2545065548894124  0.9718003737386174  0.5132720621441962
  0.4872983518397365  0.0021945593375837  0.5043054154024308
  0.7400313266151041  0.0085453996788786  0.5092612247744936
  0.0210756333524610  0.2378289961795790  0.4767005739723246
  0.2442464879283623  0.2578344647252366  0.5026283045541493
  0.5215435688887562  0.2356056220425514  0.4881646058824552
  0.7443370750841445  0.2347432982518202  0.5062814287782057
  0.0080230988953277  0.4918765226269719  0.4910727598529934
  0.2422573352970900  0.5142894737055766  0.5064687788550195
  0.4929087966809550  0.5048432921202197  0.4903904568293300
  0.7516215605502269  0.5000411848566175  0.4932741941512627
  0.9959820341017918  0.7517447713718770  0.5087980051402364
  0.2593589458536834  0.7467125073262234  0.5226307435363337
  0.5075077065832867  0.7495734895313044  0.5013702497440755
  0.7410321360023308  0.7602680269504745  0.4928913750853809
  0.9950191134031375  0.0014822584082924  0.7578301759092663
  0.2553429023134935  0.9852043370900178  0.7602227233194424
  0.4911102198928170  0.0049523790495606  0.7582899178029819
  0.7399443115711450  0.9832202977435605  0.7635063368976976
  0.0090373173528440  0.2546548846125424  0.7405038648357496
  0.2633168752954343  0.2530148078173531  0.7306281783693727
  0.4927879606051171  0.2468748156405329  0.7545139933906891
  0.7746555109564356  0.2363218262577363  0.7367120035847049
  0.9943723364813759  0.5100587596795318  0.7408221263100985
  0.2636615698844669  0.5137536579081073  0.7397697894104376
  0.4931479817634272  0.4892339690277242  0.7611371676639753
  0.7406407052371657  0.4930776855662143  0.7431687002156089
  0.0188771175843639  0.7304141144980760  0.7536696481989913
  0.2539972126737375  0.7378926773122060  0.7589689427922872
  0.4826840125112676  0.7505998564405771  0.7601304910155626
  0.7467576767252662  0.7574858837063227  0.7625984063982867
  0.1246091360827670  0.1310410421510868  0.1398660062081606
  0.3812919239744801  0.1254602399814484  0.1260142501488104
  0.6252153821821781  0.1113395911361584  0.1250054950995260
  0.8582351211326910  0.1173580688772785  0.1347431660075891
  0.1033898807847770  0.3892383985307182  0.1315875224400759
  0.3751290987906341  0.3989295793408016  0.1012053802368763
  0.6258636815322171  0.3701205892699191  0.1299408508083153
  0.8647694843791139  0.3674794584848436  0.1394644586963727
  0.1395793215634867  0.6226846866378249  0.1261237696618620
  0.3733965727968795  0.6262393213997355  0.1227641897057413
  0.6359254427881865  0.6175405690099474  0.1261802099815849
  0.8713980035933482  0.6308625536282577  0.1309133657169433
  0.1360698465054229  0.8634219473027563  0.1093219530724142
  0.3689205357017332  0.8820547278734854  0.1146899993723921
  0.6207872913825685  0.8787250810102343  0.1326380973606106
  0.8671199027648072  0.8767524477712761  0.1288479738386566
  0.1215537068389683  0.1254260608387595  0.3776941442593792
  0.3717562048887820  0.1440292928185453  0.3687978294708000
  0.6201211401146753  0.1122320960095059  0.3731146806199001
  0.8568901112618380  0.1209586938494306  0.3766470485058597
  0.1242693413802032  0.3915733817154426  0.3595851692460564
  0.3778254684236311  0.3745647106511388  0.3741222999528225
  0.6216494185747645  0.3818812968801444  0.3745001708343977
  0.8584220363839619  0.3968967151507120  0.3927871667571477
  0.1218972082287254  0.6299664075454254  0.3806724852534727
  0.3725986741906760  0.6153152238885129  0.3836133003144723
  0.6188972654549449  0.6333993635384274  0.3689315133607544
  0.8727193845969772  0.6313887058809273  0.3853611128576724
  0.1215719757950186  0.8721020199637137  0.3786968952548085
  0.3763848082232087  0.8895236593129631  0.3709324977124433
  0.6383119776335058  0.8783545604046926  0.3817797504830780
  0.8686881331607967  0.8847581901119511  0.3784193436007091
  0.1032846277741492  0.1478601384661087  0.6407945053033116
  0.3864696937776116  0.1252475467215547  0.6139284204114633
  0.6126789037291642  0.1256800398763893  0.6301968222122029
  0.8656969793859290  0.1231618182087663  0.6406408182714111
  0.1259301221281296  0.3580510907622339  0.6318187200065855
  0.3717767507229555  0.3932654729788763  0.6096467141271581
  0.6173958941960493  0.3737763594643051  0.6287478365934395
  0.8746224764563543  0.3636575190258872  0.6293103535657659
  0.1513726909693191  0.6010392792964014  0.6129413400749762
  0.3811981252258947  0.6112917455247825  0.6285887788916702
  0.6271111251608853  0.6302002172494862  0.6198417136635911
  0.8673310366807282  0.6185151797579652  0.6228747024004376
  0.1316465680129600  0.8666345230066872  0.6161998226270744
  0.3579788166616548  0.8692451447995366  0.6239453630556894
  0.6165679978243143  0.8745491714541223  0.6306643960118546
  0.8758219469738158  0.8765771028430323  0.6357292934602887
  0.1360868501806261  0.1176775839556739  0.8611919469999771
  0.3904970399875910  0.1102262252494446  0.8700602989287156
  0.6497202596429552  0.1229860339434314  0.8594344926422287
  0.8754905178383559  0.1169754990780386  0.8748318471615275
  0.1323937085332876  0.3768776054121800  0.8616017657713035
  0.3593960857277330  0.3766086922182354  0.8863082416868180
  0.6179316299386481  0.3796644715468853  0.8761788178868353
  0.8741320261044336  0.3914485054774689  0.8610148749445518
  0.1295213964202612  0.6002248682782081  0.8766315792648732
  0.3747758926029643  0.6161724458009457  0.8886630857106911
  0.6222126291647070  0.6236493630593984  0.8755246610604240
  0.8660928073784762  0.6247754778038130  0.8746569212878338
  0.1207659974582932  0.8795329482425867  0.8695312190480184
  0.3750558358913364  0.8732392436312849  0.8766575694555601
  0.6173440262108096  0.8943494118526731  0.8588652284538366
  0.8817563170706810  0.8699854575743955  0.8705481429060111
