generated by phonopy
   1.0
    15.9923497217343744   -0.0000000000015236   -0.0000000000010772
     7.9961748610645493   13.8497811253384029    0.0000000000003944
     7.9961748610645493    4.6165937083140518   13.0576988688087816
Na Cl
  64   64
Direct
  0.0129837308188624  0.0020106582941968  0.9912647453956265
  0.2512475451554523  0.0044805651414765  0.9924462882020145
  0.5145464534063203  0.0086927155812722  0.9976497156962449
  0.7273948465016000  0.0068295130702561  0.0129718078911318
  0.0151710858728373  0.2565402784164427  0.9947488925117671
  0.2423061129988202  0.2373587870109784  0.9962451511518611
  0.5073263559694255  0.2460518494302926  0.9924186768250576
  0.7559771971866351  0.2662464902777760  0.9941236489683204
  0.9999098177163070  0.5166124876684698  0.9900160545232086
  0.2562347694580444  0.5027432340367834  0.0001782385535079
  0.4925079268559499  0.5068771815346477  0.9860053883302369
  0.7398877908521705  0.4880379116217266  0.0131588275968615
  0.9957142313500138  0.7667448181181130  0.9895058018003340
  0.2443736228084969  0.7528164233147606  0.9938431068567676
  0.4947696048040584  0.7476271975273089  0.9956940821938686
  0.7452459913771290  0.7601455821041280  0.0035019420782853
  0.0020345242411530  0.9890787519377153  0.2460629791710956
  0.2427921658167163  0.0040404995556824  0.2469661361221259
  0.5012796055629658  0.0006466794797174  0.2415919325952089
  0.7522232397968854  0.0069396784043839  0.2381121744503967
  0.0126553238376412  0.2410742317177898  0.2394092273134360
  0.2609214998440859  0.2419875906929903  0.2375645059181247
  0.4879250987375892  0.2547313027388952  0.2581875495543981
  0.7429674494905086  0.2601963498033212  0.2531102052754189
  0.0029432202369126  0.4878034499439908  0.2542621233812257
  0.2558286653146349  0.5014750602559637  0.2500594774094625
  0.4776658803367694  0.5068822218907927  0.2708963603780999
  0.7387776835873444  0.4899655761993982  0.2539656578397625
  0.0102260047598807  0.7338986280729970  0.2510739065939754
  0.2403412064101638  0.7418814375451308  0.2674825714622436
  0.4755274642297196  0.7652659205499720  0.2539402460837691
  0.7351960813562058  0.7574619156963164  0.2609701665060996
  0.9896862404125580  0.9895741786278288  0.5001257511323955
  0.2418861079949108  0.9884588177673406  0.5080497009346310
  0.5189017698989785  0.9699809329541972  0.4954706814420705
  0.7616818522854990  0.0017533269045981  0.4860692954501991
  0.9828397529345131  0.2642289317005877  0.4941971699439621
  0.2379870645540944  0.2575392924963473  0.5186206855913367
  0.4990738494655962  0.2578659134271680  0.4947331208585558
  0.7539775357112476  0.2479420334103311  0.4821744634084827
  0.0073441340982877  0.4928570740615008  0.4908531743451847
  0.2492752199388401  0.5197525644097621  0.4917172390960510
  0.4869219172369654  0.4953072743901965  0.5278254802453888
  0.7378215296798818  0.5216984493470611  0.4957597073575966
  0.0034956486208129  0.7581282760753141  0.5051554487968334
  0.2303737945760240  0.7728464774314677  0.4706637344867109
  0.4911029747379966  0.7461335646020637  0.5194466692259200
  0.7328999763454483  0.7683223662733163  0.4862394257186747
  0.0165129379805448  0.0050928638628960  0.7419229524417529
  0.2435687635904520  0.9885990614152111  0.7707880671323423
  0.4930485519231579  0.0107127978284424  0.7650994912663537
  0.7607007120565462  0.9884446256768407  0.7486188751130459
  0.0050677298078372  0.2358117828328201  0.7711347296789607
  0.2717223716360726  0.2521073900983830  0.7331077337696603
  0.4961757564633865  0.2531157723771481  0.7561627548050174
  0.7426959012807643  0.2532133673727682  0.7453270111017501
  0.9817547834885100  0.5076620709596560  0.7432894933566990
  0.2386328624021468  0.4865787150016205  0.7740455557182365
  0.4883865476003323  0.5204522428460162  0.7468418909170013
  0.7492869335770909  0.4834530799802904  0.7471732887788225
  0.0165438658693846  0.7538912627218002  0.7381499896721642
  0.2446576752229496  0.7401617752036427  0.7410057749754465
  0.4778866808470879  0.7627433774216739  0.7457081106973875
  0.7453767656778265  0.7449100348635638  0.7299269015464913
  0.1271372587539071  0.1183793102080815  0.1286828693189391
  0.3819257763071349  0.1280932464206603  0.1301362952620501
  0.6376304948130307  0.1114978673308478  0.1231268484323795
  0.8765125156461536  0.1210896407249883  0.1272340946754936
  0.1206352365213566  0.3835624834725560  0.1274456581285497
  0.3696046124975479  0.3798103645669839  0.1405347446172364
  0.6349029172738783  0.3714677839519490  0.1258793338577322
  0.8668790416732147  0.3883577377088626  0.1235363659326612
  0.1090101768890557  0.6266992881107579  0.1350736774592471
  0.3793061369524075  0.6058739141109859  0.1318155463900325
  0.6283434250472827  0.6264017823108418  0.1133226704739020
  0.8912826916893521  0.6288172834672965  0.1002195985611722
  0.1372244438532502  0.8763467834245553  0.1136488112130835
  0.3740666098354580  0.8764885417363694  0.1194058646176920
  0.6155781728860711  0.8782610027193779  0.1251403061024274
  0.8658398082393941  0.8615366429332305  0.1381503783135241
  0.1131791696700474  0.1327392271750234  0.3751066553965036
  0.3588102349644266  0.1207198873329563  0.3767830487022505
  0.6179592834811380  0.1244924055602575  0.3796411834061388
  0.8767391702336995  0.1356619762535065  0.3704885337484173
  0.1354203318244916  0.3609450145917860  0.3733164108257677
  0.3837128192622597  0.3706174456361420  0.3693664871229811
  0.6311822717796157  0.3653897936046993  0.3811181244670866
  0.8859591977819027  0.3715058777089782  0.3600663321956262
  0.1328422420949201  0.6290390420740397  0.3790307905851028
  0.3843929306660245  0.6216868825754120  0.3743165457415137
  0.6344217759930200  0.6131430928724468  0.3772781973611598
  0.8901136898522206  0.6056934621203812  0.3795527392432738
  0.1114031359861017  0.8849999588336039  0.3620735493773054
  0.3663790018938986  0.8876756120800684  0.3774760830803405
  0.6298355093780604  0.8735460753390633  0.3956332115339716
  0.8564344700023501  0.8778301056432137  0.3858963151593691
  0.1239566125509823  0.1335615116312408  0.6124529888439699
  0.3930726054987986  0.1141030670857481  0.6120970211303728
  0.6238738364793270  0.1180504910906780  0.6330401589731746
  0.8962049829310438  0.1090782676515598  0.6228755565723173
  0.1303403500631395  0.3516912318294736  0.6392175180061124
  0.3791284163953400  0.3592821246359943  0.6333509959422049
  0.6216142223345283  0.3661518721324840  0.6275797890750615
  0.8557801266605012  0.3911935546912206  0.6340252068713006
  0.1319138571109235  0.6236092147940052  0.6218455720725581
  0.3609543337105704  0.6377822638061739  0.6395153871967485
  0.6226123804118344  0.6250716906273325  0.6318810146417593
  0.8908812419670128  0.6212906016363628  0.6342521843608548
  0.1345742253800839  0.8664720653903327  0.6115688142509944
  0.3658652380294638  0.8762884341412538  0.6330049382200281
  0.6285086457318885  0.8722046358263266  0.6243423703187159
  0.8698800665458447  0.8932582097875653  0.6239375421335944
  0.1197646987539374  0.1189073093132898  0.8714231295880641
  0.3730666208426573  0.1343115765898490  0.8715507541071104
  0.6287080180281144  0.1306559479410809  0.8738335057677888
  0.8655114225490279  0.1175150835301744  0.8758829426197937
  0.1223632118054223  0.3785424277535182  0.8775855323396096
  0.3713644192276698  0.3809163808477507  0.8689483736979603
  0.6206823929335501  0.3729794047429891  0.8740899397767870
  0.8775769202014170  0.3774587413661681  0.8650427512458456
  0.1152126619345743  0.6236660947368849  0.8785319487882690
  0.3835062238461567  0.6238233778251541  0.8716504371634082
  0.6248718608313207  0.6281029567302442  0.8757963610737080
  0.8878872428408031  0.6150063892625690  0.8768935414263311
  0.1345559332085343  0.8559501634404800  0.8822311132759156
  0.3774054400281988  0.8768866474798251  0.8737581125466731
  0.6242797649210203  0.8689673753670477  0.8760820373459487
  0.8862818260053906  0.8744220996364704  0.8745628055050131
