generated by phonopy
   1.0
    15.9923497217343744   -0.0000000000015236   -0.0000000000010772
     7.9961748610645493   13.8497811253384029    0.0000000000003944
     7.9961748610645493    4.6165937083140518   13.0576988688087816
Na Cl
  64   64
Direct
  0.9717806063199770  0.0342392166719514  0.0136512106104160
  0.2396641894204742  0.9883031333218282  0.0178685932447217
  0.4780675332814942  0.0203041148280776  0.9915289498295818
  0.7539335465917711  0.9962636208861881  0.0048179624640627
  0.9950572470266673  0.2496605141126844  0.0022055294162136
  0.2391043833668659  0.2436501947854330  0.0069135667497009
  0.4803263714569802  0.2348494255841441  0.9998933700749478
  0.7425512463832634  0.2382379718583512  0.9979244559152179
  0.0014026365197197  0.5016043819726526  0.0109108412165836
  0.2791201166377426  0.4941377203589445  0.9788939389995958
  0.5017538817035828  0.5110509514910682  0.9921962594835633
  0.7386169632956985  0.5203275221269953  0.9990536309102337
  0.0049012282085610  0.7488783575460038  0.9907200793031773
  0.2592586853000700  0.7443807287049874  0.9789226419134929
  0.4955701423501103  0.7515943533796832  0.0082173742464608
  0.7322602141456226  0.7459108424689431  0.0025727839527252
  0.9935575685377072  0.0092942046849876  0.2690005324586152
  0.2639930980801576  0.9982330633510483  0.2535216114256139
  0.4953012155220055  0.0070920021988549  0.2483238370428538
  0.7434404413403479  0.0085782832875494  0.2614987568213504
  0.9832823757468501  0.2606553610462317  0.2541995614250573
  0.2475585927304803  0.2605411036392412  0.2428191116881061
  0.5136194923823345  0.2463880734392305  0.2472354287843526
  0.7460584635251500  0.2352543000231290  0.2653062362371409
  0.0027690377594016  0.5123290794126076  0.2398059259590819
  0.2623851816934619  0.4956518551402163  0.2452560095622631
  0.4950091313704366  0.5056841787683589  0.2413207618389731
  0.7476560917138784  0.4874936221222985  0.2630512441639386
  0.9911123188546425  0.7382604966075580  0.2657759349105865
  0.2523870308721221  0.7606191377538197  0.2419160990961164
  0.5021163277018107  0.7547991641971674  0.2410182663119423
  0.7547067307118560  0.7509535996956409  0.2733544125577072
  0.0146851450669950  0.0002904410807038  0.4957236207355004
  0.2495865202510274  0.0093436018911093  0.5005856342469133
  0.5012624080936959  0.0028693149554358  0.4916386296068476
  0.7496211089370817  0.0066534869839834  0.4962275379223428
  0.0065621517481566  0.2453667524606896  0.5101603807547839
  0.2493648528904909  0.2619606450775195  0.4887699837959225
  0.5086500750611318  0.2385655081777992  0.5000271235790030
  0.7289303491244206  0.2638266771472825  0.5039330540935054
  0.9900921370339368  0.4947879860278737  0.5231066422308981
  0.2449249694455201  0.4891824140001100  0.4954479334812724
  0.4899215256485744  0.5145343248845666  0.4905461203818611
  0.7705152844956848  0.4954929197539316  0.4993205787365707
  0.0131474341807516  0.7590461241960732  0.4854152337338571
  0.2483927169011547  0.7526460259582128  0.4952821222869579
  0.5062441030490955  0.7640796442960617  0.4703721360702425
  0.7705836391026523  0.7431742068341932  0.4982230494687165
  0.0079323323399414  0.0071499287041842  0.7553947846756206
  0.2366688943498004  0.9947986850851983  0.7533981265304587
  0.5113482272543154  0.0163136880314234  0.7352026470719029
  0.7362540984403639  0.9937011057978911  0.7479619928321517
  0.9919597069066608  0.2448142275382575  0.7632338132747151
  0.2668851291890173  0.2554446509041461  0.7388600124847118
  0.5002872355229713  0.2484442202750800  0.7620217747634873
  0.7624848180601957  0.2530570556845378  0.7572696525752447
  0.9934504832566216  0.5109755250616665  0.7451610609689906
  0.2570929595181030  0.4949066375101984  0.7535893494807662
  0.5317031347954680  0.4843474093124461  0.7415466928681250
  0.7528231588483251  0.4881729149541034  0.7443886020151740
  0.0017638231509548  0.7490539088618851  0.7342490591741864
  0.2337779258695939  0.7573657869833113  0.7534880348249464
  0.4852529640814176  0.7417788729813461  0.7563491976451687
  0.7490761806070174  0.7426841934690274  0.7577662208598224
  0.1298676033327599  0.1136277376149704  0.1310753205848517
  0.3635476805702589  0.1318740988907138  0.1276679875993218
  0.6263127273109267  0.1326063060253910  0.1145810179961833
  0.8777722731704425  0.1132012443101976  0.1242996283453981
  0.1284601856004777  0.3829884474212112  0.1171053121463308
  0.3632563653601986  0.3650084162385235  0.1481039787209967
  0.6310610626118245  0.3721722321212133  0.1382853260583275
  0.8937715501873791  0.3771226560252653  0.1118161680477627
  0.1391793988135220  0.6152207940448550  0.1252451799949597
  0.3730312606497136  0.6418096381759069  0.1161087018307550
  0.6329604830158869  0.6116703322490683  0.1219416053557008
  0.8751829765773537  0.6248804112060424  0.1207493100830860
  0.1254473301522256  0.8666112806623953  0.1244912053818997
  0.3589280081875715  0.8820626069644377  0.1235687746800925
  0.6165588893023135  0.8954553782294027  0.1136451754193598
  0.8673442975989492  0.8922013732817138  0.1158129586550884
  0.1312463449372657  0.1113202414035526  0.3694720797705479
  0.3779204886827112  0.1224553178479324  0.3736404292588040
  0.6262387791440356  0.1136870955456933  0.3840537580085021
  0.8717632968835475  0.1245902821416684  0.3621886326333115
  0.1328901651798489  0.3805050441395173  0.3656999882905085
  0.3769364420135288  0.3629993586813670  0.3817150793443171
  0.6175681056414886  0.3698484528224717  0.3842194011643267
  0.8871248971979921  0.3565035876604554  0.3852068232836865
  0.1188725131933210  0.6351753073642081  0.3631917271233761
  0.3785839169485805  0.6105558328017303  0.3772093527911016
  0.6176445821363989  0.6105449051794692  0.3900204749471247
  0.8853328472308835  0.6216696578769978  0.3591083541854032
  0.1155708466815787  0.8791834104172787  0.3693758978489441
  0.3923601008640720  0.8760908492061841  0.3671017282762185
  0.6188375815998521  0.8988521449573055  0.3645718680294344
  0.8706646996814464  0.8635437768769915  0.3867662615426428
  0.1308914408455257  0.1282851177668037  0.6262946737918016
  0.3714489981028586  0.1237515298469916  0.6227065050025228
  0.6153275884069773  0.1289878327539757  0.6278236762577740
  0.8727307855241440  0.1302974840021622  0.6216107797947438
  0.1389721278566529  0.3768824794294805  0.6211977098067475
  0.3703103384349878  0.3696023771064134  0.6369126119399452
  0.6220464754160453  0.3865718143338721  0.6265031171210317
  0.8572476587882593  0.3696461155112837  0.6349789859163648
  0.1187576934702660  0.6248279970823299  0.6313436001661348
  0.3700385915095321  0.6204348679181588  0.6363690470844522
  0.6126220289522168  0.6386428955881365  0.6215926567438669
  0.8771080925146352  0.6246290142830100  0.6312505256727519
  0.1412545037238061  0.8696147955160264  0.6193100330377969
  0.3704688288235134  0.8713898967418133  0.6272090784803926
  0.6134917335836843  0.8688050902997351  0.6168709592221207
  0.8769716722778913  0.8779322721826853  0.6194167754223912
  0.1226124099536499  0.1127307739185781  0.8822606036027661
  0.3613162244342588  0.1330301066111363  0.8804497215643968
  0.6289375327757255  0.1227527608018760  0.8728535385376214
  0.8908054175786208  0.1158141783446190  0.8715757989743150
  0.1255827247835262  0.3755659449430765  0.8832007073389592
  0.3696345600127692  0.3826962302103554  0.8812663657966525
  0.6333529758538383  0.3745889900995105  0.8610750960589515
  0.8706693603624838  0.3679185612634972  0.8788159923198112
  0.1303266854521499  0.6372194467252709  0.8669534743936895
  0.3766187530321497  0.6182959913949182  0.8884115746017679
  0.6417468908614898  0.6374779204797102  0.8626591700727304
  0.8773014904229850  0.6219600202795237  0.8752287155396001
  0.1267586784702430  0.8683787448195076  0.8710691712039681
  0.3666732305278207  0.8799725393851188  0.8824750640793112
  0.6417180734691310  0.8648493541749376  0.8794416792109865
  0.8680917014617497  0.8660224838414743  0.8879300099574754
