generated by phonopy
   1.0
    15.9923497217343744   -0.0000000000015236   -0.0000000000010772
     7.9961748610645493   13.8497811253384029    0.0000000000003944
     7.9961748610645493    4.6165937083140518   13.0576988688087816
Na Cl
  64   64
Direct
  0.0010828248622414  0.0026289556927330  0.0034320514757675
  0.2730202638253578  0.9822447978060306  0.9840256073546636
  0.4987390787448805  0.0166621163193924  0.9974192103969576
  0.7465718574046167  0.9982118333872725  0.9938602114061068
  0.9850904818726788  0.2563379895846422  0.0132082885420817
  0.2422874472275014  0.2421428494196085  0.0118912821783481
  0.5169053135832377  0.2294590011587749  0.9958252780300709
  0.7520860893812531  0.2447521941327893  0.0127985462296953
  0.9966556179952329  0.4982911103517596  0.0137994496576301
  0.2639751477248956  0.4939329621637410  0.9997945860887604
  0.4809889407137248  0.5062136072680221  0.0045346082041472
  0.7455070228714002  0.4978774473628480  0.9966766537353190
  0.9929601377761724  0.7750086119228299  0.9805702316231095
  0.2368832165251972  0.7595743967949150  0.0031398776201918
  0.5043710491629705  0.7465671977066205  0.9940707342473001
  0.7558086533248061  0.7512935758468844  0.9923296906025485
  0.0083453292077819  0.9909489468203541  0.2447889010780193
  0.2707582484421027  0.0082909106498814  0.2544312939188452
  0.4850386544309843  0.9929263149684390  0.2556914504938539
  0.7578226135809646  0.9879456887280856  0.2491875527358436
  0.0175834834324782  0.2463211123871820  0.2454814170759159
  0.2292318744331255  0.2660882331797363  0.2672118588890511
  0.5197360818503353  0.2379819376807935  0.2574078452602387
  0.7667106197312022  0.2551790195087246  0.2425431148892964
  0.0029318796750157  0.4997933422919177  0.2510945915185686
  0.2422023094867531  0.5157486007671940  0.2519196367480576
  0.5007944948200485  0.4900462273921661  0.2773656196691419
  0.7473632041465308  0.4903008705400775  0.2552625683408217
  0.0005057263874127  0.7516366985254801  0.2573464013734049
  0.2529493296468153  0.7518612387078504  0.2576839904122135
  0.4937497000079836  0.7452341012626331  0.2482528185283395
  0.7556836785107010  0.7442253318395663  0.2469029271179260
  0.0156955072866141  0.9819794546764073  0.5008260789229636
  0.2230177140202346  0.0136919792714695  0.5085026551004556
  0.4913624027394508  0.0125434122527667  0.4984037128119093
  0.7529340626628827  0.9990096805790917  0.5034270049005058
  0.0039305205928987  0.2575611049706327  0.4923882815438986
  0.2428766624643603  0.2524054653055742  0.4918201876337456
  0.5125402415941778  0.2461433098780955  0.5020236866653576
  0.7478728907046222  0.2589575683819080  0.4962827338585703
  0.9906929988013926  0.4957493667563743  0.5043835093643867
  0.2364183581404385  0.5137532151872959  0.4973988563427145
  0.5025431283752341  0.5100087430399833  0.4993749710693781
  0.7352440301601806  0.4992838691297656  0.5057191874004126
  0.0038945999983737  0.7490915113059171  0.5020900416125402
  0.2404221241599210  0.7550852010348449  0.4881017303875776
  0.5131016156814738  0.7340538094283008  0.5033294210414957
  0.7581182533947888  0.7364679469963377  0.5191163734569418
  0.9869248828763256  0.0233370012729717  0.7379482464853928
  0.2486474749562432  0.0091505566311020  0.7449947445180319
  0.4868028658577536  0.0083201477329682  0.7502238478618491
  0.7603440327555844  0.0045366333242783  0.7455629802195759
  0.0178347295602015  0.2382434235737749  0.7583293495036606
  0.2669335553080290  0.2667182851977945  0.7188930801208115
  0.5063670172253258  0.2545626946594544  0.7511571075423125
  0.7538743612953230  0.2460360270989597  0.7504659796093788
  0.9874771547239978  0.5020793775904024  0.7474028379134287
  0.2621412646785782  0.5200112955401627  0.7376415537049713
  0.4822124394195859  0.5078292656773441  0.7547623009271303
  0.7288504193945000  0.5131394145470363  0.7462493994729753
  0.9891876484248430  0.7501623747767450  0.7495486280777363
  0.2274015959812209  0.7414213444869224  0.7600843098164668
  0.4821349616325175  0.7473382320872440  0.7580369739448375
  0.7455088191082664  0.7533367537049984  0.7524348705710957
  0.1342271183450327  0.1116149788264944  0.1239347662176432
  0.3919004691672649  0.1234422974550617  0.1117851439774203
  0.6155540838483813  0.1278724026566926  0.1277872521322245
  0.8792926569868971  0.1261512047834257  0.1240969222895296
  0.1299174425542893  0.3861326536669179  0.1124653957332796
  0.3743137196326774  0.3760826666897960  0.1242700965795127
  0.6243455569039513  0.3706133946268826  0.1270809017737486
  0.8746557456029252  0.3652509051640541  0.1304538537706337
  0.1386762435228014  0.6155272521762362  0.1080590579550354
  0.3761200043845948  0.6225908509598149  0.1167897991996572
  0.6443640734816172  0.6204792992224798  0.1324505783894254
  0.8797323928166160  0.6231869834956520  0.1303639614526401
  0.1229397878042216  0.8764204210772344  0.1314851770150581
  0.3761928591488704  0.8743850544357346  0.1341516728091891
  0.6249127804860208  0.8718394216849463  0.1436419172116102
  0.8776011039757161  0.8618929018342487  0.1304465799008348
  0.1311197521280346  0.1154421015653247  0.3632317060189969
  0.3701643539932566  0.1209341918135917  0.3809548309971585
  0.6255124881930503  0.1028476181815276  0.3725355498048593
  0.8786558197012906  0.1232699480832423  0.3686695188183664
  0.1268748226503554  0.3542700039525026  0.3772366469205217
  0.3827286525074146  0.3689448699266152  0.3806157612796465
  0.6407665209719785  0.3692430184407345  0.3822428862407392
  0.8788868230337484  0.3649020137562323  0.3819836059906803
  0.1219555742521585  0.6466563437374325  0.3726996070082900
  0.3950950698615183  0.6077347561285711  0.3632187365288401
  0.6242894355595415  0.6149492833623831  0.3625787455396103
  0.8862520976029397  0.6180677288246220  0.3617975759726494
  0.1270134758890668  0.8651948187831430  0.3840980283047145
  0.3958652024990446  0.8655689482050766  0.3744879637225982
  0.6277372535262452  0.8895130340153589  0.3770545755060827
  0.8813597720977447  0.8735077085014662  0.3804336366577749
  0.1248556730236139  0.1206707471693455  0.6203382876540605
  0.3620168783754504  0.1541018274252688  0.6169814366829394
  0.6396388537731830  0.1129742376390260  0.6232988831846142
  0.8722441813167516  0.1168852864268934  0.6241399474176862
  0.1255643009576645  0.3622480164544615  0.6154674361454870
  0.3721252080090746  0.3868452086199033  0.6223975345730740
  0.6164913343467057  0.3748104008527768  0.6299855992581894
  0.8761111781047302  0.3609650068341502  0.6347059647396922
  0.1351478289014791  0.6144379321720799  0.6304528164396576
  0.3778554898293329  0.6121733698055581  0.6254650192722681
  0.6260201014567717  0.6231517159132504  0.6243300592170510
  0.8753102616205894  0.6213745718163858  0.6273372549017427
  0.1232690999924341  0.8860254422543039  0.6140647660995504
  0.3648330896653141  0.8836775397250909  0.6299337344211053
  0.6390005829261524  0.8520173359646142  0.6317739532978607
  0.8847243833775340  0.8732869464875657  0.6129065683754475
  0.1417113187548183  0.1142532935884628  0.8594887431123235
  0.3622962955949484  0.1226318273491221  0.8672768272345448
  0.6210560308683497  0.1286926814809936  0.8737468197325738
  0.8588487231892521  0.1135548542163854  0.8774840699012156
  0.1331522122044543  0.3549302172626752  0.8720319795361864
  0.3955429072487098  0.3627469523819209  0.8669575267174532
  0.6274852694439890  0.3668601674966395  0.8873170032677890
  0.8765358609865364  0.3740592123573135  0.8732408120499291
  0.1251447235235715  0.6252156557231695  0.8919111150705475
  0.3750488703707551  0.6117577815661432  0.8796903547773944
  0.6284689412076925  0.6198753680608651  0.8837769880614652
  0.8571262376412292  0.6471668950459338  0.8844401849092358
  0.1365836880190185  0.8670038500110513  0.8826551802275654
  0.3763894586410599  0.8764639829947340  0.8801453881698879
  0.6277704985559825  0.8767202181967009  0.8649974761422348
  0.8840161058380971  0.8706106659875399  0.8818909132214023
