generated by phonopy
   1.0
    15.9923497217343744   -0.0000000000015236   -0.0000000000010772
     7.9961748610645493   13.8497811253384029    0.0000000000003944
     7.9961748610645493    4.6165937083140518   13.0576988688087816
Na Cl
  64   64
Direct
  0.0167451315870107  0.9810486181950326  0.0213483605189618
  0.2788931181069781  0.0010881343033931  0.9946607342140383
  0.4812223785686237  0.0036259872153780  0.0146913454622562
  0.7477375841797966  0.9915608201417766  0.0146696744883816
  0.0221193818442704  0.2594588871081179  0.9733188681401714
  0.2491791069937940  0.2433234925960043  0.9998992431841789
  0.5006327678743094  0.2484260961107342  0.9964406332644763
  0.7490902288979291  0.2503000223775731  0.0182922921664050
  0.0017329183881986  0.4988048513320160  0.0029346110457556
  0.2517842130065602  0.4910694952933038  0.9981895506108149
  0.4959023818791311  0.5015796035563842  0.0118497216097540
  0.7456338930115267  0.4964330374876561  0.0058772057741455
  0.0010516669774242  0.7479500994716104  0.0027476655166099
  0.2595562145639735  0.7554534083619752  0.9843530159428144
  0.5052382378694729  0.7391173344569553  0.0162186241785726
  0.7513110159526881  0.7484582477461432  0.9859352515185243
  0.0109974976610689  0.0002666863448502  0.2328136749730057
  0.2337224924864407  0.0162601162704206  0.2319422975522773
  0.4949998844899299  0.0132383034778476  0.2474942622631462
  0.7609633161505349  0.9935550598818339  0.2532700549548574
  0.9998548920986903  0.2228134009275683  0.2700898897494342
  0.2616796571930874  0.2380236955763884  0.2447965589542808
  0.5034681553529039  0.2504998208600125  0.2620126750085803
  0.7692778720272269  0.2527347331821794  0.2429552091699397
  0.0119905745912973  0.4843299417986708  0.2518365679624214
  0.2352529780629634  0.5093517943524225  0.2338216422939505
  0.5161386941193207  0.4952305988034768  0.2443514526708842
  0.7523018188537346  0.4974589563621504  0.2481407395665743
  0.9957810781742562  0.7523925435128714  0.2513617622312674
  0.2661587999668052  0.7668156172928441  0.2290565934097332
  0.4864551109370118  0.7438397729770142  0.2505167945268622
  0.7560690239106904  0.7514158081445850  0.2499776613655578
  0.9987524017753122  0.0024137076955062  0.4878118882443460
  0.2539820237797947  0.0013732072549541  0.4859008278783465
  0.4865723245782985  0.9961099189217573  0.5213057900076643
  0.7561483233615984  0.0043478864306276  0.4942841151692758
  0.9971007779906922  0.2608376226642681  0.5098160028469069
  0.2506860573620133  0.2428889091796987  0.5134006866206330
  0.4999002080534716  0.2635433772673029  0.4868094065669700
  0.7458052976985683  0.2379962848051179  0.5142838569768000
  0.0054829474258156  0.4888307260384440  0.5043700568705599
  0.2557588845297208  0.4906146395123230  0.5066317676303710
  0.5061212223627337  0.4958928977537820  0.4979685827082735
  0.7629268769648960  0.5269358955465262  0.4834448549254083
  0.0226261383418043  0.7556556258247313  0.4838301748832993
  0.2376146249435957  0.7477011525035111  0.5000812329776287
  0.4867994046929038  0.7643854657852570  0.4998915202072665
  0.7414992110685975  0.7394133911627951  0.5127326306361152
  0.0010513629539333  0.9960073977780155  0.7583666009833980
  0.2312261598762864  0.0156568957685689  0.7500125901375616
  0.4927333961006432  0.0150361700851437  0.7549347706109042
  0.7591498099466700  0.9943435128602313  0.7438830492346860
  0.9995885344778997  0.2528403391101846  0.7363001329749852
  0.2507912981912646  0.2609179379958106  0.7411499457224011
  0.5072086806773476  0.2468668360543885  0.7441943734868037
  0.7481777031149559  0.2612138316106924  0.7470350755526211
  0.9889487296423467  0.5033024983830447  0.7506276443683908
  0.2546493752613788  0.4980981993737512  0.7603744281248238
  0.4857074121656723  0.4912796273814203  0.7734155089557782
  0.7595943062110621  0.5120230586148993  0.7393507773075912
  0.0128059070835525  0.7446615354876891  0.7531972400832206
  0.2630691786020266  0.7442361142087822  0.7303895169268978
  0.5022831896923152  0.7574049798118579  0.7399561894564065
  0.7446868187274407  0.7459049515495393  0.7627529481726553
  0.1247752336747425  0.1325707471257579  0.1202362617589343
  0.3786037651324749  0.1242418513920570  0.1221625628449907
  0.6200754460876816  0.1257588978529365  0.1269063497250680
  0.8874372082347933  0.1273927068248652  0.1183207399567918
  0.1232692736152983  0.3731072302228570  0.1131470431500697
  0.3808274995765724  0.3813888420003453  0.1246603321624670
  0.6120581590500015  0.3851210555249668  0.1297764926191330
  0.8837676335827835  0.3653202197116833  0.1394285800540009
  0.1176557314625314  0.6401776753010093  0.1257246266838475
  0.3695030162457641  0.6306100046344784  0.1307325055205092
  0.6288476249363474  0.6163167242580613  0.1187691413922191
  0.8810083858340465  0.6337857810475290  0.1193483030190715
  0.1332087030027559  0.8736976297102833  0.1186817859133476
  0.3772582804061048  0.8679995665198472  0.1335156291553295
  0.6235711220201843  0.8632985674874027  0.1266513193652469
  0.8877644632024709  0.8730407738076793  0.1229791066535656
  0.1324596849923464  0.1305436930210256  0.3759201910326174
  0.3821939056228840  0.1323325956073491  0.3787968487703373
  0.6304995418418496  0.1180092652244264  0.3792916604963832
  0.8782463970297463  0.1386875331055638  0.3697033058665085
  0.1275101002047012  0.3892481986098488  0.3664673239248305
  0.3607391183539889  0.3687952742254978  0.3836133174321442
  0.6281106845966941  0.3920793262704266  0.3677932856844310
  0.8803638737202824  0.3865429428231932  0.3725348679508886
  0.1273200996600530  0.6180030620878572  0.3700848211363047
  0.3783003290003822  0.6297205342575004  0.3766091268692285
  0.6155710629332678  0.6273205265146162  0.3830486430624459
  0.8714931159575375  0.6341053049670844  0.3670672909419001
  0.1181729486063685  0.8637665590979489  0.3998373393835674
  0.3882101407048010  0.8706443562177435  0.3652872463912421
  0.6245362154294006  0.8845481836372726  0.3685468010802528
  0.8824084290889130  0.8791211920936164  0.3800007883399332
  0.1335924319515759  0.1231202744996852  0.6156717989067967
  0.3727580029444713  0.1298609909084648  0.6172110377411565
  0.6089869160109938  0.1249249445996090  0.6303276685625810
  0.8496276132109184  0.1228811705541155  0.6454059162262917
  0.1206138866392474  0.3822305853546855  0.6325693796039794
  0.3741007426900441  0.3704288839431346  0.6181350976531412
  0.6351619568404390  0.3646633401402471  0.6165281749695928
  0.8734277528592358  0.3845975900516282  0.6119051788056008
  0.1228006418247243  0.6243147989528453  0.6225929407973395
  0.3496613567781740  0.6396583413592077  0.6240341251080057
  0.6408921862192403  0.6220858460307541  0.6206140194142381
  0.8708830212702215  0.6292829338848648  0.6191778440912729
  0.1299947258916812  0.8716801430732486  0.6224627081155346
  0.3681348931624252  0.8758140020652000  0.6274690488579623
  0.6355019778524800  0.8696136425830888  0.6406779202568087
  0.8705623926334617  0.8790728846176411  0.6220309416346187
  0.1274463629839068  0.1183409239434229  0.8687348147521873
  0.3689116283329676  0.1178805041525793  0.8800763548774860
  0.6284439194387863  0.1262061482334079  0.8725351244306876
  0.8723063373427482  0.1441478954031147  0.8567044121109740
  0.1208157264806913  0.3781996123405312  0.8841862961555502
  0.3806464508920552  0.3877366556772612  0.8776969877901409
  0.6113131958416205  0.3784226326761102  0.8751769220796447
  0.9002794421074782  0.3686788890292398  0.8563714665262343
  0.1204461729942149  0.6389423989567489  0.8680651497064176
  0.3721922738160069  0.6307744323406941  0.8718912716944555
  0.6216047713187376  0.6236058364309125  0.8874883226439436
  0.8829419286194264  0.6130101847129863  0.8861385519131241
  0.1177833619246350  0.8728071946999114  0.8848600968310883
  0.3763094403807526  0.8814229627644390  0.8736109737378868
  0.6233692862640643  0.8703159373838059  0.8690067192859999
  0.8714985130615069  0.8779858849656140  0.8831624892812906
