generated by phonopy
   1.0
    15.9923497217343744   -0.0000000000015236   -0.0000000000010772
     7.9961748610645493   13.8497811253384029    0.0000000000003944
     7.9961748610645493    4.6165937083140518   13.0576988688087816
Na Cl
  64   64
Direct
  0.9906561983873756  0.0033464221236462  0.0057695812588064
  0.2490759550053016  0.9987557377419310  0.9998517590270507
  0.5002222267468811  0.9979806994464769  0.0074893419302680
  0.7476927071015335  0.9883269570186167  0.0048526930811742
  0.9916453359444509  0.2410429158917743  0.9902556802612567
  0.2373310248656672  0.2573350609544964  0.0093535637785320
  0.5145679234543002  0.2328448686784562  0.9973916349671154
  0.7530758205432094  0.2488122235052130  0.9927952028637950
  0.0075121434325677  0.4898111629533369  0.9997472908144538
  0.2581462515723157  0.4935162290859019  0.0028244171677172
  0.5090583921516296  0.4969848734372955  0.0132584558766062
  0.7495329746077581  0.4993482541961308  0.0148946166866260
  0.9972426408927426  0.7438347226260927  0.9968698138356069
  0.2334914407273806  0.7445301393519035  0.0123569034221114
  0.5106551948350778  0.7560366943948494  0.9883649168905904
  0.7621503486644009  0.7445776012879570  0.9841042162732773
  0.0133727622352223  0.9910896287506948  0.2572286574604454
  0.2481555019266147  0.0018027462236537  0.2497448576977297
  0.4994038595467465  0.0105056296647777  0.2509955097918553
  0.7585621401378696  0.0105850749919360  0.2272617118308027
  0.9900859924428128  0.2320666071350532  0.2679570368370002
  0.2539604627182340  0.2536207135063437  0.2378379550366204
  0.4914090421256232  0.2378008371038484  0.2598178584026481
  0.7581369747992528  0.2405205249878250  0.2573892263674373
  0.9789834892131960  0.5351314850454846  0.2620166554381128
  0.2459668973848443  0.5190864505800132  0.2318891597309208
  0.5050805782659125  0.5087962530599016  0.2562978794324404
  0.7350220090158519  0.4994026134607561  0.2550040675154679
  0.9726010504520612  0.7709674698177380  0.2592971039874544
  0.2466266451929455  0.7485391962540664  0.2501974450282604
  0.4919920901465008  0.7554339898932643  0.2534659262092341
  0.7415336038952745  0.7476895044540421  0.2475881866489889
  0.9960856984580643  0.9896095428274279  0.5144010126124027
  0.2293387896523490  0.0179100050660041  0.4864392688437522
  0.5052735266171154  0.9904645559871084  0.4963009507713536
  0.7512483180665023  0.9988021375981525  0.5056333274355636
  0.0111020835697244  0.2328846857128105  0.5028975783869362
  0.2598488788643659  0.2527819245383740  0.4902262093344354
  0.5096734593834248  0.2406677533733824  0.5081471837993737
  0.7501139440110991  0.2555586383709459  0.5004150164100519
  0.0147844153646633  0.4924155917298396  0.4887944050092448
  0.2514922062927933  0.5187922374164663  0.4950381189893632
  0.5095512250135352  0.4960932065861085  0.5084439334942055
  0.7505823294539480  0.4958933751707166  0.5096700997914566
  0.9932033073794335  0.7706177871076673  0.4794073505037033
  0.2738325816179438  0.7516121129224997  0.4780065223193733
  0.5123785761434813  0.7548371295276124  0.5014090920262152
  0.7385322596928932  0.7534144191741979  0.5091970066834757
  0.9927418026178522  0.0152283457701740  0.7583585197300263
  0.2538460469643666  0.0073796140876384  0.7514591214208226
  0.5165865065122679  0.9975424902808661  0.7146561068804780
  0.7464106348511673  0.0056045912265508  0.7487754391978172
  0.9977208447463777  0.2396230390198071  0.7411620770171773
  0.2446062121888450  0.2455413331491693  0.7668738407672442
  0.4922962669175103  0.2448220210867480  0.7706105933821944
  0.7462763845254615  0.2498040607693247  0.7450014186986913
  0.0043411888112158  0.4980841739477903  0.7453761351141109
  0.2602050412974879  0.4898478586343599  0.7491763858792878
  0.4975990069173406  0.4936953888958845  0.7509854406060736
  0.7630423257505319  0.4832020829478313  0.7479022267625599
  0.9970639967481378  0.7455213653059908  0.7595578632044527
  0.2588988914946337  0.7533329898713305  0.7489914206509239
  0.5038044019137607  0.7236005504842000  0.7593109293612610
  0.7635041894249006  0.7501197553739074  0.7476264915788488
  0.1151220999889942  0.1316703031548423  0.1247669230199945
  0.3566997286732982  0.1329513726201942  0.1193521767484441
  0.6234920521438899  0.1243362199106056  0.1367007716085293
  0.8834095724193696  0.1335706119979046  0.1137793871042299
  0.1185113049071625  0.3848220817672732  0.1229160039215816
  0.3909263905860517  0.3688879687111334  0.1347666548783289
  0.6284574667833791  0.3764266968923982  0.1172753728029397
  0.8597084075459270  0.3857637691374626  0.1253283330138107
  0.1295116634889405  0.6277667729061450  0.1228381374820293
  0.3829980735468261  0.6092250925847587  0.1304981457492325
  0.6329005987075690  0.6155414980641510  0.1327322308673583
  0.8873330591416486  0.6271280719496976  0.1236655678452663
  0.1068400023627195  0.8630620065656263  0.1515335752371771
  0.3780226107121002  0.8841490301470509  0.1240756295449001
  0.6242890906877977  0.8680910362667018  0.1315717935810505
  0.8622690748396171  0.8723887240743688  0.1344432581021096
  0.1367222116601398  0.1084769069127726  0.3880538768620300
  0.3794690795260697  0.1244436319877295  0.3708613466786118
  0.6275212577012423  0.1337195951452227  0.3631951780462310
  0.8747682186260687  0.1221269574646808  0.3766663720761954
  0.1420159124681044  0.3619246640192900  0.3790999439865103
  0.3779126039789381  0.3471914418459462  0.3850773246647530
  0.6184316000010593  0.3950324483723245  0.3536797923470490
  0.8692336382490298  0.3770640016832141  0.3835852490133209
  0.1361445437261826  0.6185783087792851  0.3636761686778934
  0.3871833719828525  0.6117035083774369  0.3765425789202845
  0.6283319786869032  0.6286914527134181  0.3719611651499200
  0.8772591128531410  0.6227037650033356  0.3841326927334908
  0.1173723619904469  0.8770905474480548  0.3784140279926884
  0.3878947158465791  0.8547229199855748  0.3748102659306189
  0.6327870257362331  0.8715986094992370  0.3722273891839857
  0.8658931064746433  0.8930153609590531  0.3740720135078247
  0.1354906537810943  0.1182628301261364  0.6084795775542736
  0.3627168637661982  0.1419260933858497  0.6300693959728668
  0.6190259996537222  0.1303566048626802  0.6382922815394099
  0.8888384474126874  0.1283539895823843  0.6185989683295589
  0.1070939144866408  0.3923967266857566  0.6320068050021538
  0.3743460761505061  0.3749913219642443  0.6228403044367693
  0.6341580433289102  0.3660665367683333  0.6216991606222227
  0.8679646500767308  0.3820134396534124  0.6310469891244531
  0.1181403633101019  0.6213868472156240  0.6233959429575389
  0.3548548077050166  0.6145073829944230  0.6422357722780766
  0.6177929644745268  0.6190044018039003  0.6245872277881868
  0.8857165865614215  0.6298258431987791  0.6051466354074660
  0.1303828875837260  0.8580295004027643  0.6231858406405114
  0.3761617208196554  0.8858250669172099  0.6180027774711268
  0.6226285961078118  0.8691865964910072  0.6262741183196080
  0.8710981716204507  0.8740324398946253  0.6340881953428178
  0.1179047732553635  0.1226037845732201  0.8781421517030358
  0.3767045309181731  0.1261211817996583  0.8600699805423069
  0.6046363922130683  0.1193637690597792  0.8868325719838753
  0.8856463101572296  0.1355037395132316  0.8632148861936169
  0.1223169952963548  0.3668667352470620  0.8800924580429613
  0.3761614731899361  0.3794431762323626  0.8731721178300978
  0.6186252663786992  0.3692958647836312  0.8764294689040200
  0.8975608825270057  0.3534177047925689  0.8846620921440820
  0.1209633122155643  0.6201765651460744  0.8838276831909010
  0.3808436761463960  0.6288073950555254  0.8686406527159861
  0.6149598684118736  0.6264665968877998  0.8778771356060872
  0.8654107099162476  0.6299896733264739  0.8801511933433523
  0.1379032256211346  0.8729024837261447  0.8588691917657016
  0.3624487511077130  0.8805171462034076  0.8838863300499820
  0.6100029289464797  0.8805817314655497  0.8787239294808941
  0.8807127416378694  0.8751858556286526  0.8593991697536334
