generated by phonopy
   1.0
    15.9923497217343744   -0.0000000000015236   -0.0000000000010772
     7.9961748610645493   13.8497811253384029    0.0000000000003944
     7.9961748610645493    4.6165937083140518   13.0576988688087816
Na Cl
  64   64
Direct
  0.0131391601482648  0.9791268611397105  0.0062862690855111
  0.2332837024727644  0.0138227240328646  0.0085534409535590
  0.4966211806449671  0.9989208714000499  0.9999181920825320
  0.7519721897192558  0.0105047465178487  0.9958707693869471
  0.0155588458727984  0.2277448024260233  0.0102348494789176
  0.2640597978090883  0.2445107747325679  0.9920645218730179
  0.4939745855282474  0.2412416635787866  0.0140577382238388
  0.7508804859341786  0.2372944506479196  0.9987172540879623
  0.9870621040213489  0.5139122341082604  0.9965592695787822
  0.2291863336218719  0.5063774348506448  0.0086725622685981
  0.5043104964269731  0.4971589993096450  0.9927491608884389
  0.7516702289320675  0.4978632142655898  0.9952122222697197
  0.9961854093068853  0.7546811866662914  0.0015450799549389
  0.2556228565535010  0.7485493015599810  0.0166953627802881
  0.5139394139511027  0.7488528096851869  0.9983534994023198
  0.7386567493064862  0.7544289991407027  0.9888943961836508
  0.9901571493520733  0.0034624354238549  0.2516709453478011
  0.2758660558062396  0.9825275647395622  0.2406977972283811
  0.5053858610969990  0.9809566991915897  0.2630561318301381
  0.7505656148294425  0.0043403818100006  0.2340536780558412
  0.9981264806550660  0.2593654091875695  0.2536764895622529
  0.2521797650866729  0.2477174884666270  0.2479252948238373
  0.4824874905904741  0.2491173129968037  0.2625689948127294
  0.7496455021358240  0.2541650384617529  0.2366371240364206
  0.9718561590129187  0.5197160566873036  0.2299407508850334
  0.2545457196497700  0.4963146002297740  0.2468731865877555
  0.5059690041728860  0.4932098228710828  0.2354782267700852
  0.7533327242083031  0.4983685960175721  0.2459039967870852
  0.0069228295978552  0.7463869171826949  0.2594309077011225
  0.2328568960499248  0.7524634587335974  0.2370744486257211
  0.5222280027664769  0.7484120069181498  0.2508547095860182
  0.7395563344460734  0.7582790937993074  0.2508215712691002
  0.9960553111964944  0.0077628555537871  0.5036091101223470
  0.2487156687849405  0.9882726769796470  0.5045254493932704
  0.5132162994439937  0.9933118629381139  0.5080410005920927
  0.7533831508532185  0.9896611736948968  0.4967022495062949
  0.9977601844204095  0.2455352848757892  0.5103668415721995
  0.2459945017295500  0.2554590818107766  0.4912391841452903
  0.4898136489831636  0.2591936933902738  0.4926588822816255
  0.7561543748541656  0.2525654773477864  0.5065098897994073
  0.9762491297289994  0.4976491658447092  0.5021807846788742
  0.2562812495139306  0.5087666122603601  0.5030481186199712
  0.4918889982947685  0.5082844149480644  0.5126155446123819
  0.7636295921210202  0.4977034066331849  0.5007190565930920
  0.0026128571110265  0.7378135008169897  0.5020805759673751
  0.2718026797819522  0.7379138372380279  0.5024721169155356
  0.4903461188729702  0.7627624164631972  0.4956895263252286
  0.7446838640492263  0.7429169828681687  0.5145534066894124
  0.0294788947048389  0.9825436192275763  0.7482916746472679
  0.2533496282009209  0.0009665871267890  0.7491891570897342
  0.4861410343527651  0.9919871340488253  0.7635084823126991
  0.7299988350017054  0.9959588440082066  0.7570315291982846
  0.0092423311469820  0.2563770559076147  0.7344697128247836
  0.2516313835046360  0.2665096875080025  0.7350094398980139
  0.5078682225269742  0.2541996082832124  0.7424305861606747
  0.7355981108406737  0.2540470391098112  0.7656297613959030
  0.9956219699480251  0.5029586924689646  0.7642656049727881
  0.2698601530612966  0.5058947811373739  0.7420362115244172
  0.5273654685636499  0.4841647552297966  0.7385984453135575
  0.7391225264264782  0.5154090496775934  0.7287155408951081
  0.0124725625833942  0.7642766724439429  0.7406135229306272
  0.2426924546443838  0.7556220942477567  0.7526186824249242
  0.5054814509276103  0.7430957220115950  0.7506396504188616
  0.7502455560183792  0.7504424925926347  0.7489883797676584
  0.1235235772942857  0.1231941962599831  0.1154632851098113
  0.3840381809302492  0.1031087791159824  0.1480861078705036
  0.6125987560489387  0.1370063881469760  0.1325777786754757
  0.8718618669370930  0.1198005552999860  0.1197146377659605
  0.1352866088636124  0.3711251203066084  0.1210530900061740
  0.3804963046610941  0.3738066152585057  0.1165728492428846
  0.6256717325430023  0.3669682879996499  0.1350904881552031
  0.8630445077635597  0.3849913912923218  0.1345333461321630
  0.1312167355241391  0.6333657163365098  0.1131959517650459
  0.3958642681728979  0.6150046449358771  0.1187179076266774
  0.6409292167692729  0.6122440253361403  0.1317505985155611
  0.8741918064992721  0.6403255356106452  0.1207985775986030
  0.1116315644553181  0.8798608203063034  0.1241756102347328
  0.3750591809707416  0.8739554091750751  0.1227606395003845
  0.6317884752121210  0.8744996273643348  0.1195105768462838
  0.8784705671903726  0.8747905551081634  0.1178028105282156
  0.1276451553290426  0.1296937722643435  0.3705789173436232
  0.3701722833634254  0.1211961263309221  0.3806619407669738
  0.6256511982335775  0.1269185315306787  0.3678958844510097
  0.8707795742445844  0.1286901883271303  0.3737678072833600
  0.1353896187837045  0.3684161042331543  0.3858280692799232
  0.3760185212941580  0.3750395228180462  0.3704236503505134
  0.6191124319641975  0.3808669514970180  0.3770669734086133
  0.8579926389518934  0.3771639866283585  0.3842823525475499
  0.1309918256571059  0.6210361656107248  0.3651502981610674
  0.3808657459957431  0.6211875963776787  0.3622859351918994
  0.6355515900435036  0.6227269206171948  0.3735786331758530
  0.8818838516395587  0.6434594445191131  0.3682339613434955
  0.1218704934141853  0.8765766575111180  0.3715690586053190
  0.3660691252775176  0.8821272138444810  0.3810841835452823
  0.6227205437501915  0.8799099188122309  0.3821207236858150
  0.8789142871426443  0.8790671148687640  0.3729011479212248
  0.1335717963291493  0.1122143346413706  0.6142765014425742
  0.3758866808234901  0.1458823994191843  0.6108070310191661
  0.6336742923564127  0.1220704230400965  0.6232109214548270
  0.8705689542395576  0.1398110318193376  0.6166704667666514
  0.1187877078295205  0.3823649358903609  0.6303672086751858
  0.3741310495838041  0.3806772295215030  0.6193677241601409
  0.6209799457033663  0.3609881190430983  0.6407645493757600
  0.8831102293885189  0.3784574673694711  0.6190585727113023
  0.1276051230228373  0.6159870715013090  0.6350127476731929
  0.3654497575146171  0.6393182000700068  0.6213320455947420
  0.6213901429667195  0.6345282720391815  0.6247803249275335
  0.8665128249256090  0.6131274804800635  0.6308053703186923
  0.1408894909860023  0.8674344199983783  0.6249699754501931
  0.3738333193544798  0.8733701859859688  0.6191150770083271
  0.6381774843860635  0.8712500902886354  0.6358726379942331
  0.8922150786020548  0.8815213013332683  0.6194413312947393
  0.1273282330301654  0.1336748554329110  0.8704667971567951
  0.3821353932590141  0.1102204782526183  0.8768552051140724
  0.6115872129274897  0.1401277882987293  0.8780290264235137
  0.8720735590983094  0.1231932562878628  0.8813645242388845
  0.1218215778693110  0.3794704249783715  0.8690165699361575
  0.3824498161666801  0.3817748345682180  0.8699169218711926
  0.6191666039112561  0.3826403012414491  0.8592014606317745
  0.8536519384110584  0.3869128224760009  0.8734534823031832
  0.1255301215089470  0.6194255763633407  0.8813267369759843
  0.3759467046222015  0.6177739115309926  0.8893392269427023
  0.6268095830366274  0.6227573668964037  0.8712723582664444
  0.8853589734616877  0.6158159042065392  0.8701299199278855
  0.1313611060051135  0.8709265702687152  0.8686243612561096
  0.3737873454597832  0.8850088152282950  0.8745788218696203
  0.6319387904793512  0.8758611502539675  0.8722846067173812
  0.8670045389485126  0.8741035706394581  0.8818610217704146
