generated by phonopy
   1.0
    15.9923497217343744   -0.0000000000015236   -0.0000000000010772
     7.9961748610645493   13.8497811253384029    0.0000000000003944
     7.9961748610645493    4.6165937083140518   13.0576988688087816
Na Cl
  64   64
Direct
  0.9963656538886658  0.0077471461932340  0.9925308403766557
  0.2718551428881199  0.9955971038499949  0.9966410880610671
  0.5107889311475707  0.9978636404992502  0.9872120518921801
  0.7382243038645133  0.0030557477631994  0.0189671176199592
  0.9895848288645817  0.2428602053654462  0.0104188108270871
  0.2368576145376511  0.2368144746466068  0.0149004754954658
  0.5052137859992646  0.2553726584395281  0.9852591080041568
  0.7548631841225388  0.2418962241807538  0.9965900300369642
  0.0123924928994165  0.4992715501410293  0.9805648749326761
  0.2622637311745366  0.4784151712173139  0.9958788666168141
  0.4996488894418354  0.4953352194879410  0.0095842352618935
  0.7518899736195541  0.4939226037221370  0.0083893800412996
  0.9914960190726857  0.7525338485821248  0.0064287868358513
  0.2409505113754384  0.7400746752830849  0.0016452186266289
  0.4893297648603395  0.7440415735697573  0.0057412492278204
  0.7332604121094110  0.7356571690959127  0.0230871623191512
  0.0113998951226555  0.9926437946291724  0.2458449122861673
  0.2522014115011056  0.9891974161858796  0.2518247370828039
  0.4955334587835648  0.0148332164247230  0.2485960807918843
  0.7419726764989049  0.9962849091806258  0.2564422339090833
  0.9912718843013614  0.2686542956250216  0.2511056881213405
  0.2498774513952489  0.2391274682112251  0.2516992705317194
  0.5156479447561190  0.2411548854302152  0.2537330452122990
  0.7562190685595507  0.2564619411629107  0.2530009891017976
  0.9944670163031581  0.4902436759127869  0.2505498708635374
  0.2382654661424484  0.5062635126228068  0.2668577775430052
  0.4894179158418634  0.4910173853861575  0.2540750805666379
  0.7496904368930832  0.4989688489677152  0.2506282459832703
  0.9946804584315119  0.7475583639023582  0.2555080186523638
  0.2489748542344719  0.7367569764413952  0.2610906692173426
  0.4856422143890879  0.7748020554473819  0.2448833980500171
  0.7675407843185449  0.7591619193336810  0.2240546427798117
  0.0098665261880215  0.9872412173771663  0.4986771245568224
  0.2673583608302261  0.0049731605124584  0.5004055747652921
  0.4940759763910911  0.0048660988282988  0.4946062623553708
  0.7500098237486577  0.9916273807990525  0.4944215786414036
  0.9927978444456411  0.2420729058411218  0.4958518475113364
  0.2540550691802738  0.2507337141772089  0.4911605301501375
  0.5094158078845484  0.2454060726432527  0.4973045422445218
  0.7386661109345751  0.2510610938710026  0.5122772993961127
  0.9878192827674774  0.5028304594815409  0.5058138138961382
  0.2509775362878860  0.5184659707216355  0.5083592101428335
  0.4925538359092023  0.5017760853780624  0.5008629659389150
  0.7513385021445834  0.5010941002886171  0.5072111483634359
  0.9822934348186532  0.7621437260396740  0.5021100858369009
  0.2485660343830774  0.7666521703438303  0.4843295498956400
  0.5171798372319969  0.7634137230098269  0.4807918392986777
  0.7427931615036895  0.7666854816306349  0.5020515853339228
  0.9833295270304475  0.0057299809089725  0.7640333615164666
  0.2404590423671613  0.0225717351475367  0.7312430611560057
  0.4872596774306019  0.0182180717539214  0.7361896372553127
  0.7459870872184802  0.9894584909073214  0.7719828510292995
  0.0059639400547187  0.2453978115677187  0.7501786269107117
  0.2465707956534665  0.2529937837489674  0.7409051675648137
  0.5139559339533040  0.2479538526262624  0.7363447210893254
  0.7419229941468923  0.2401083844309340  0.7638382017866923
  0.0109810934429453  0.5085363169160528  0.7478134933110198
  0.2385167861393205  0.4886887182485355  0.7615955036261578
  0.5093521961094949  0.5086330559314390  0.7361014355928134
  0.7334538992023605  0.4971038281350709  0.7694315029677404
  0.9914448024118990  0.7529524078689794  0.7476133472031306
  0.2567754568827545  0.7509547343490279  0.7532802393996362
  0.4972660293021013  0.7576877984053074  0.7328324108365692
  0.7511594518614726  0.7587627599125374  0.7500778852065851
  0.1226921216660360  0.1238173120228301  0.1307213145565645
  0.3869635026598920  0.1104688117577404  0.1200770788128585
  0.6312339723357878  0.1220040784021270  0.1233300373492697
  0.8769688356363503  0.1243906441806853  0.1244074555981745
  0.1218170703419797  0.3614155984605517  0.1375341671954728
  0.3732494566817643  0.3738521860437631  0.1195772170880148
  0.6394419896310478  0.3707066518761417  0.1193290336547024
  0.8885395747528325  0.3661474069964852  0.1074628699495500
  0.1229556442925996  0.6118821528718690  0.1207529541503496
  0.3820480165359831  0.6377082951779685  0.1227021304385694
  0.6389464639682655  0.6368374553156373  0.1030883174075007
  0.8616624602517508  0.6455373279807151  0.1255587173838698
  0.1307424033100622  0.8594738776535787  0.1355334592942023
  0.3793329661066762  0.8697853040176954  0.1296932890318222
  0.6166803948932386  0.8771551744957623  0.1329963320246891
  0.8674129790792253  0.8780704762394698  0.1201950737850195
  0.1298055259728516  0.1332536375230757  0.3758026394795053
  0.3630921077790386  0.1283874224353124  0.3870011308499832
  0.6161138303503909  0.1433880499197514  0.3599153611678200
  0.8827664178436816  0.1201087773833932  0.3749965043705992
  0.1338815498642949  0.3761459528113279  0.3609106614108320
  0.3660497616105600  0.3768631509201001  0.3923826441938136
  0.6317631398762399  0.3747384806705792  0.3715719740303073
  0.8752935203760860  0.3924672074609696  0.3555781240114899
  0.1229902684900129  0.6523033711866157  0.3706954307811969
  0.3852562890786871  0.6365511020305934  0.3724999647305756
  0.6158727078769879  0.6242735416838092  0.3819790738014873
  0.8702145057013069  0.6356743197682048  0.3705186756880164
  0.1314730682494898  0.8790754605915114  0.3607662544399912
  0.3832275300758975  0.8724084976129255  0.3633007906644170
  0.6187060676094406  0.8949086114421467  0.3718043989339585
  0.8752851837191852  0.8683990933146447  0.3720167442367259
  0.1197685556695575  0.1323451722040700  0.6236149965336623
  0.3841164797043678  0.1230265144383517  0.6286916917675461
  0.6251580896503056  0.1274741742306898  0.6364786880616573
  0.8686286194079397  0.1195847906481093  0.6301672132028199
  0.1432888124303547  0.3696683286315062  0.6237778134190489
  0.3811059647758802  0.3696864810980331  0.6161944522425002
  0.6103392447682865  0.3580762306020907  0.6387993743398689
  0.8646855371847870  0.3732449469523220  0.6385645598090808
  0.1360642974700431  0.6061456674141245  0.6230073645079697
  0.3810997948975335  0.6168094641408737  0.6291596227559717
  0.6099837038666504  0.6156652854133977  0.6488053559675576
  0.8791727684117022  0.6315964000492108  0.6236860361599741
  0.1146397419765866  0.8564597459305540  0.6323848830432351
  0.3483849879680497  0.8844191081164795  0.6353759721389155
  0.6296292312619592  0.8658710372666825  0.6337099278661591
  0.8599213607633697  0.8750739241133846  0.6372299770188242
  0.1265488155395238  0.1233388434562991  0.8718690983168804
  0.3775472040454148  0.1328662302441141  0.8659399672232064
  0.6319015719337921  0.1173870256407883  0.8748566764976150
  0.8825791218005755  0.1157504977185451  0.8683290950929284
  0.1329900379038220  0.3689217426206074  0.8850021792219519
  0.3968283923532340  0.3627618598584716  0.8692611170051634
  0.6357841913129163  0.3812173208522524  0.8673632709120424
  0.8814639609895645  0.3730832152417756  0.8733845578506547
  0.1228400608993139  0.6210407001072018  0.8761152795814027
  0.3695949295733652  0.6406177652973901  0.8830200548369553
  0.6203345643362914  0.6101127637468311  0.8875699134611759
  0.8769226887808649  0.6117986499654343  0.8835384047896964
  0.1372429236590010  0.8658202952733509  0.8602690237014727
  0.3661649953307189  0.8733032741403131  0.8838763356113721
  0.6198117640780011  0.8740964626741654  0.8711628610776914
  0.8813859474412867  0.8632968160921151  0.8748032766242997
