generated by phonopy
   1.0
    15.9923497217343744   -0.0000000000015236   -0.0000000000010772
     7.9961748610645493   13.8497811253384029    0.0000000000003944
     7.9961748610645493    4.6165937083140518   13.0576988688087816
Na Cl
  64   64
Direct
  0.0073216984745429  0.9986075936652279  0.9925535001814371
  0.2555108697341470  0.0126809528190327  0.0047306657558675
  0.4944761180750584  0.0145868234559330  0.9968996947306942
  0.7576560610312113  0.0109827617421982  0.9667336012387896
  0.9950869667221434  0.2580209103548455  0.9971206576405814
  0.2469133537601331  0.2549783250947227  0.9996694220390498
  0.4930164485371824  0.2549145004108646  0.9979207858861503
  0.7599111614755142  0.2462561067027833  0.9963273981465550
  0.9919928491893303  0.5009221066959334  0.0003130624804754
  0.2772562600512953  0.4986555195765304  0.9965314342456081
  0.5044743847502637  0.4949632327649819  0.0008017621987702
  0.7441459538510270  0.5041766409230829  0.0063073529232050
  0.9831875320654077  0.7705481973769145  0.0032322200477643
  0.2477481332058969  0.7462485924958098  0.0104410923312970
  0.4934169515517431  0.7563094222400985  0.9855071841667195
  0.7639678858480836  0.7193824720766847  0.0020121449317663
  0.9904344943078753  0.0157861655410507  0.2501504795009581
  0.2588813409195326  0.9868143325636695  0.2476207246348528
  0.4979211870313350  0.0040976724157552  0.2518045927200538
  0.7496236276946393  0.9853249566605752  0.2530807463309689
  0.0069861005459580  0.2494518975387682  0.2544303632880283
  0.2455676031775724  0.2753231277982226  0.2368499708870014
  0.4937147687594527  0.2401841538288187  0.2593215959538254
  0.7563618487463487  0.2682213985106316  0.2362496666517766
  0.0011198873009574  0.4964993107326693  0.2290596129672300
  0.2447245621922410  0.4939724498581882  0.2499455956669886
  0.4947249233938822  0.4941644179785357  0.2444711982103930
  0.7471645879754318  0.5078154462624024  0.2434069342868512
  0.9963557543160599  0.7242770444682025  0.2698915278736501
  0.2532616810731548  0.7500805083947291  0.2412351957275081
  0.5273643846005018  0.7408215202972177  0.2509454675589952
  0.7580693889184040  0.7482679416018745  0.2367150014598151
  0.0049936731037754  0.0070171184507672  0.4956442378127753
  0.2587691061668458  0.9972462821724213  0.4967955938883213
  0.5046721785508208  0.9918496258857008  0.4926007974528051
  0.7509530760369658  0.0015949080735935  0.4946026967441088
  0.0143552120180198  0.2531516401645092  0.4999909796461327
  0.2310599978991587  0.2629397111572153  0.5056975991619544
  0.5058256835951773  0.2636552286752554  0.4856631136137709
  0.7644838958667463  0.2443731740050877  0.5028301301910442
  0.9917107766904172  0.4918118672639209  0.5138363302544565
  0.2535810943210001  0.5100392713283168  0.4979726722629731
  0.5195147720663663  0.4855979553213599  0.4901261314304855
  0.7451847551949157  0.5086173280829986  0.5018890798475382
  0.9969177070359628  0.7746390032102313  0.5029071893896713
  0.2437729297014233  0.7461610391850761  0.5061723892019081
  0.5072020281645118  0.7443262526231438  0.4997868601875800
  0.7499027094331614  0.7513615765626205  0.4928448441151702
  0.0132138624790123  0.9967508784954983  0.7428121117010746
  0.2447484604007908  0.9955435794597063  0.7583444335970074
  0.4990382435162040  0.0013550717132370  0.7361254106054598
  0.7456801502906862  0.0022176618458078  0.7445156961716545
  0.9975596859714913  0.2633582265505622  0.7464383083992029
  0.2692152498000202  0.2463891860909264  0.7366326757238280
  0.5108488373942874  0.2509539180657812  0.7396340051820202
  0.7528216416951446  0.2513653573747329  0.7534913513740703
  0.0155035785971634  0.4879356540133292  0.7518422253533111
  0.2457924344446255  0.5042873408335766  0.7324120236140012
  0.4786279145588977  0.5028074292802581  0.7499897786808984
  0.7552622284164097  0.5000867887381815  0.7499808658206687
  0.0297049544788192  0.7268630703304132  0.7554018320215514
  0.2392876556755096  0.7600838580541294  0.7434515783189208
  0.4830537122049249  0.7626793644746743  0.7523320786601067
  0.7523665370099794  0.7472344810362062  0.7590394875752042
  0.1569881302595327  0.1172265254617987  0.1166095854806721
  0.3659865238568437  0.1254553107924530  0.1532868152238618
  0.6251937761683939  0.1171214679253837  0.1284639730827586
  0.8763594295307728  0.1148037751470315  0.1200554603331779
  0.1279776856936213  0.3787089422733103  0.1248034452868697
  0.3801955390951918  0.3726479577920178  0.1193951923192360
  0.6214495164664111  0.3782359186797659  0.1339725934213242
  0.8745837989632897  0.3796465142541258  0.1271012776530234
  0.1110742245124900  0.6362719528477573  0.1313281942605345
  0.3734410080809705  0.6212596999134948  0.1181439686018208
  0.6186057136976851  0.6379305824887610  0.1238479023725994
  0.8832539438637911  0.6327778813858128  0.1179624807573814
  0.1166784398513287  0.8696794763319436  0.1368682395082842
  0.3668166857814222  0.8748895399645342  0.1403462813210946
  0.6159057591485811  0.8883955148616424  0.1262276107435480
  0.8853351277130526  0.8674279815803093  0.1346703679683328
  0.1332111773244486  0.1189550068395617  0.3842301065569523
  0.3727550047867336  0.1139577224095887  0.3742327388275546
  0.6176284445759476  0.1155304735279576  0.3828186380271507
  0.8859986206031376  0.1377239054400888  0.3695788638081472
  0.1371433447137104  0.3619871702737464  0.3920319430175751
  0.3626971114125185  0.3735207362839507  0.3845966683983001
  0.6376486671879356  0.3658473763329924  0.3787328731796862
  0.8749585571928721  0.3741095403498697  0.3792065768179976
  0.1290287976100029  0.6218223187039414  0.3823421179610595
  0.3910370156184670  0.6191439099099409  0.3709017115777559
  0.6479238448811544  0.6256681785431030  0.3693844350030053
  0.8577032374253076  0.6361572376367526  0.3885146857573529
  0.1299754153006310  0.8553666371586137  0.3720601401051490
  0.3772844895483511  0.8622452139767649  0.3797187470055306
  0.6235840851428160  0.8834120743973014  0.3715038214421750
  0.8678040683459285  0.8959185448391792  0.3798160818023996
  0.1235282376241978  0.1159244810223264  0.6193230755633580
  0.3651833218565387  0.1311983098683131  0.6262639207512785
  0.6119169668158556  0.1334062558183236  0.6332032373310108
  0.8804220531022288  0.1268218436439596  0.6209341159031210
  0.1357549023374691  0.3632123360562722  0.6310738684356021
  0.3648993560871244  0.3671779285928111  0.6348653291331012
  0.6152987728916408  0.3849605376913276  0.6337370068834881
  0.8783404655260952  0.3664938840698448  0.6175088093610608
  0.1166203465932026  0.6130774059708890  0.6404200744677374
  0.3824679747516097  0.6372148848613159  0.6070281677877335
  0.6262160567847244  0.6181998089341085  0.6259431115966145
  0.8561466361368000  0.6324284660642399  0.6491980057129769
  0.1226254746342678  0.8818193779678478  0.6295795064336612
  0.3950323547521628  0.8785895116158977  0.6111234192495155
  0.6238151244011785  0.8785695732774188  0.6304479812676543
  0.8618199219587919  0.8876163910946475  0.6273724485519047
  0.1096933586421788  0.1393426946879153  0.8814460979384421
  0.3815207073098614  0.1329427376151571  0.8771641314655125
  0.6212411940436292  0.1218867129231179  0.8747980867420190
  0.8721530650793498  0.1175174689761040  0.8832922840359650
  0.0963606022549130  0.3918581852631615  0.9000489822911533
  0.3785060664192462  0.3891103404302267  0.8724936531592865
  0.6063940270776325  0.3853147743370501  0.8825687530971503
  0.8838858910918590  0.3677332142544970  0.8759314552459383
  0.1198745856286864  0.6279831533137673  0.8606262284522309
  0.3807531175530366  0.6145828358886092  0.8803563965824021
  0.6264218017669787  0.6507629692194878  0.8523565711268783
  0.8795338045044135  0.5961256952990870  0.8922038786299540
  0.1318471245058345  0.8913247779726047  0.8766808714583679
  0.3663790037207373  0.8770435451156902  0.8811542302039188
  0.6265006910683573  0.8797884536832992  0.8636013895532915
  0.8668513647700389  0.8726407385280025  0.8819642316379153
