graphite
   1.00000000000000
     2.4523074744059676   -0.0000000000000000   -0.0000000000000000
    -1.2261537372029838    2.1237605707260250    0.0000000000000000
     0.0000000000000000    0.0000000000000000    6.6473244490390250
   C
     4
Direct
 -0.0000000000000000 -0.0000000000000000  0.0000000000000000
  0.3333333333333333  0.6666666666666667  0.0000000000000000
  0.0000000000000000  0.0000000000000000  0.5000000000000000
  0.6666666666666667  0.3333333333333333  0.5000000000000000

