graphite
   1.00000000000000
     2.4459753960866375    0.0000000000000000    0.0000000000000000
    -1.2229876980433187    2.1182768300427320    0.0000000000000000
     0.0000000000000000    0.0000000000000000    6.6020600378962069
   C
   4
Direct
  0.0000000000000000  0.0000000000000000  0.2500000000000000
  0.0000000000000000  0.0000000000000000  0.7500000000000000
  0.3333333333333333  0.6666666666666666  0.2500000000000000
  0.6666666666666667  0.3333333333333333  0.7500000000000000
