generated by phonopy
   1.0
    15.9923497217343744   -0.0000000000015236   -0.0000000000010772
     7.9961748610645493   13.8497811253384029    0.0000000000003944
     7.9961748610645493    4.6165937083140518   13.0576988688087816
Na Cl
  64   64
Direct
  0.0183518841025443  0.9982595726449139  0.9945537156643193
  0.2456968384248495  0.0050239498248605  0.0091228215421247
  0.4919821542957616  0.0068019972130634  0.0182837321887819
  0.7553191219187193  0.9913463589019166  0.9975821934664175
  0.9905031173776230  0.2479269236760235  0.9940981316533454
  0.2593365789879973  0.2370260912997556  0.0008586743243529
  0.4858788301033097  0.2520894321278422  0.0080117276596841
  0.7453962242068700  0.2581708969345902  0.9987548750241402
  0.9862683231130444  0.5056144147513529  0.9994965213108753
  0.2495508562977333  0.4873176389651734  0.0209025501286186
  0.5063393064524867  0.5015596270297752  0.0047905758992090
  0.7561524812147000  0.4973789145436563  0.9873154095422564
  0.9961192114348173  0.7575625231649016  0.9959604283340000
  0.2479324438994342  0.7524264950493844  0.0186995592632933
  0.5158205761381870  0.7577082314430252  0.9931401844549355
  0.7489017895148613  0.7318585270840723  0.0084768131202885
  0.0057320859687819  0.9901149176938108  0.2404171398578294
  0.2513973422689220  0.0000938544849464  0.2396110241355782
  0.5081086441882837  0.9938340527783454  0.2527243603755626
  0.7534908393462618  0.0021986779337401  0.2417891013691925
  0.0019026939627007  0.2600645655386778  0.2468865814520844
  0.2292739587265861  0.2795910441349917  0.2558910208773421
  0.4995591071927894  0.2545730069786167  0.2347340656119067
  0.7621307792620486  0.2496574387679517  0.2457200576918886
  0.9858059599841295  0.5071968185585167  0.2506345584104409
  0.2565220839530107  0.4998876164267861  0.2438546647095027
  0.4895518955665803  0.4914309230387800  0.2462363857621638
  0.7657474929023250  0.4934036886028387  0.2403811687800231
  0.0220657567052930  0.7284176297807750  0.2501035349249789
  0.2425831911429195  0.7523632301310734  0.2383382555444766
  0.4950217565882983  0.7475174635264831  0.2564215922779368
  0.7445365742718163  0.7627452334373790  0.2630578938092655
  0.9999535010940410  0.0204640303878798  0.4900254578315151
  0.2774820594286144  0.9730468145734064  0.5057774262882950
  0.5046770794810848  0.9854320370898122  0.5171086575803899
  0.7470556133552895  0.9878634019165632  0.5180355635907857
  0.0064209891662407  0.2637929237977779  0.4831089993362743
  0.2436711475542433  0.2509192765755511  0.5079090564282911
  0.5093047350777028  0.2398938146614404  0.5103081439306890
  0.7492664244528374  0.2579818215264916  0.4895311485091690
  0.0085136114202006  0.5028865170569254  0.4931650769748488
  0.2565848168545529  0.5082061918551829  0.4986393022026915
  0.4728109980704092  0.4952186710534108  0.5097455613406144
  0.7621371522939258  0.5101366661359678  0.4843639084886623
  0.9910841335900638  0.7530544983844953  0.4965890840002412
  0.2623183868665292  0.7526338286019286  0.4966209639542297
  0.5017253700786117  0.7291146117202379  0.5116415216367735
  0.7516757101869472  0.7572732792678655  0.4882054326734692
  0.0177158282765840  0.0045128290386739  0.7347029924709034
  0.2509385465531190  0.9972167879527085  0.7413775919423732
  0.4990850051559299  0.9906045198808395  0.7544082752135221
  0.7513837847535383  0.9959654414735160  0.7567477775230677
  0.9841198485405505  0.2601166702098474  0.7616255873656687
  0.2418677327245673  0.2455297647964886  0.7527303024904096
  0.4906628317208978  0.2532984290653961  0.7553997236948365
  0.7579901281994621  0.2136895073061658  0.7747891999226953
  0.9989526707905318  0.4984996557330598  0.7418358023749546
  0.2564248087978440  0.5069291893484568  0.7411785025654917
  0.5009937675885147  0.4956802680870230  0.7474143578219892
  0.7312780688528673  0.5106492157646094  0.7678654150634540
  0.9899066117027638  0.7693192715007426  0.7332909579167169
  0.2816412132592868  0.7357806879651643  0.7456875341134030
  0.4834131281720869  0.7621445897331118  0.7624093542541963
  0.7564659516699183  0.7662965111864919  0.7471038866005700
  0.1372201347857235  0.1212896850865669  0.1237483367863351
  0.3918685640237315  0.0997544740954959  0.1312766015944534
  0.6176726663772072  0.1110004530742712  0.1377064348907057
  0.8786780757717494  0.1260202857850940  0.1172977781249830
  0.1227484116527650  0.3910731264444535  0.1228100301204988
  0.3758605879780670  0.3795886187742734  0.1126871677385051
  0.6215969420615970  0.3653066838428845  0.1261816127748770
  0.8716439715341315  0.3837500075320991  0.1202143682553101
  0.1156252960271173  0.6178567927545331  0.1259446996887158
  0.3801568797505320  0.6321471916511573  0.1132166127962218
  0.6243175210882375  0.6217602088501802  0.1304389351481224
  0.8701449898888952  0.6215749735753040  0.1379649437043054
  0.1191688850616989  0.8735463353730455  0.1251247271924315
  0.3844457312874469  0.8892489967740520  0.1363528423541188
  0.6226504802737072  0.8698980524790115  0.1384877927520693
  0.8756542173501670  0.8701370727890646  0.1242582817477147
  0.1437406893908155  0.0978653383440793  0.3745652669193903
  0.3836648616572623  0.1250939457814849  0.3690387761226073
  0.6328997831435845  0.1310613596694253  0.3670126667359478
  0.8661840159458858  0.1128969037785752  0.3912977226626310
  0.1317061599287844  0.3729397732888783  0.3856896637651969
  0.3743878616534744  0.3711722793425501  0.3836300727809572
  0.6308965288410682  0.3779928614340861  0.3762234444446159
  0.8877805933791194  0.3765909394094782  0.3667469428232263
  0.1227568160056633  0.6200375799648341  0.3744076935338274
  0.3815811000109927  0.6201455957816860  0.3825805254913872
  0.6149404744912512  0.6406736727980175  0.3872203158042461
  0.8657498484876551  0.6209600097927650  0.3777701627034968
  0.1124225781256731  0.8644569408611648  0.3794161036959220
  0.3756066932110628  0.8772203439277797  0.3669404957741057
  0.6092684964482240  0.8763009403547163  0.3793902968069808
  0.8766754607714389  0.8634609769869752  0.3708880442571318
  0.1304778474905553  0.1212413097720547  0.6307074121532347
  0.3807133327840977  0.1236877804489590  0.6188991986178773
  0.6133589268371112  0.1304932421753240  0.6196139402022498
  0.8810460930331189  0.1272206093439013  0.6216908639714679
  0.1031267109497278  0.3931685988744871  0.6349692265604611
  0.3890171037134320  0.3706235366446999  0.6130256811316508
  0.6273831068010848  0.3608982430673964  0.6282274661847114
  0.8818159061971442  0.3621368133638605  0.6293611722277422
  0.1283411677917489  0.6279988508563236  0.6259908194068372
  0.3720755962709283  0.6171767789500736  0.6339950483846192
  0.6067774385643057  0.6332920667656714  0.6520829795014805
  0.8713516731575339  0.6179520155046531  0.6194776652672104
  0.1265513364048093  0.8626142674006499  0.6219759388428010
  0.3620666813656612  0.8817229469620905  0.6308477211531839
  0.6347095142016450  0.8559111095822509  0.6471608839567629
  0.8585683176567046  0.8755398947372798  0.6442555538316582
  0.1173897329923136  0.1220430662272380  0.8725829069880812
  0.3684323382289726  0.1394925467861646  0.8791241429553748
  0.6331981007326765  0.1070270800312735  0.8880713665590088
  0.8762724144418291  0.1260708405976710  0.8712698536656062
  0.1328302746274622  0.3748086696787384  0.8604128441067217
  0.3574470855086834  0.3804022234316843  0.8861875118811161
  0.6532981124067216  0.3762734540103299  0.8530953470651682
  0.8678877697362739  0.3930291747166398  0.8712327742184784
  0.1150175021040882  0.6280539146586844  0.8884735303070180
  0.3701124062773873  0.6238434117455809  0.8642202299458984
  0.6371507699080627  0.6206300342116884  0.8694102153595523
  0.8748378322926635  0.6301407273342907  0.8604193008929343
  0.1305423693782279  0.8648475899656149  0.8720066533685589
  0.3653016013002506  0.8787633383935400  0.8784656001175654
  0.6196930040151540  0.8867360454025075  0.8636911934299745
  0.8901714184069254  0.8794311302832251  0.8673399104238524
