generated by phonopy
   1.0
    15.9923497217343744   -0.0000000000015236   -0.0000000000010772
     7.9961748610645493   13.8497811253384029    0.0000000000003944
     7.9961748610645493    4.6165937083140518   13.0576988688087816
Na Cl
  64   64
Direct
  0.0094571354055305  0.9943152068112230  0.9884334982764277
  0.2620920401675956  0.9919373461563843  0.0197063648648420
  0.4984153531764459  0.0209222312115863  0.9746756057638551
  0.7396128861113785  0.0074506847064683  0.9885481798377068
  0.0211670174453685  0.2292890503288702  0.9867744374436188
  0.2680588827743254  0.2539385554611640  0.9922539488941432
  0.5254726998302853  0.2286275885773544  0.9937611925155212
  0.7370644094895956  0.2561673077728274  0.9942830481676641
  0.0076565471416500  0.4864379954983090  0.9966726758734358
  0.2653157972346604  0.4911414735052777  0.0058830314888202
  0.5116519122375511  0.4801218600467992  0.9947369888820413
  0.7290195046010226  0.5070489276958735  0.0058156905636749
  0.9828933743113156  0.7358164213599682  0.0144449114551123
  0.2696776281578107  0.7383695016616321  0.9980253148129969
  0.4818053919757018  0.7488582593885641  0.0036470534413644
  0.7385532689823128  0.7501272548747960  0.0158873812316912
  0.9953570311306735  0.9952153537311811  0.2439653002235014
  0.2586222366342743  0.9961254645012710  0.2397350051579511
  0.4892592240669874  0.0047832251852815  0.2468267657412379
  0.7395588838976948  0.9985291629913281  0.2511234972768901
  0.0311974710734552  0.2350286015768837  0.2528145294292701
  0.2542945150229875  0.2401905566699088  0.2347299014526830
  0.5078990116442433  0.2348129289303054  0.2546053161755489
  0.7373153778621110  0.2470398128527031  0.2586228046170480
  0.0141171276046501  0.4750466345839334  0.2546314146355186
  0.2604399782195986  0.4989190928332655  0.2406811297502882
  0.4984378780555297  0.5153450845239944  0.2482924981499776
  0.7631200017182665  0.5026612581320198  0.2418399334400128
  0.0237371983263822  0.7471941768606613  0.2322858207176907
  0.2644111340166745  0.7386243640357577  0.2548619925422666
  0.4992647715323782  0.7697580071870720  0.2426196674048066
  0.7475263959040301  0.7575516644776743  0.2369473019750439
  0.9792900884473607  0.9883688793507550  0.5195522670087879
  0.2465143169747218  0.9942285522248582  0.5105588276854214
  0.5031017899271590  0.0035638263139132  0.4850295360459851
  0.7687880337876186  0.9717024384720783  0.5038834245392110
  0.9982023548310933  0.2603535835530910  0.4941543717676196
  0.2479655991802982  0.2696648523798517  0.4957461786901249
  0.4928115087419390  0.2593282374480222  0.5016454798137873
  0.7435843489752836  0.2421862707664331  0.5199109849618321
  0.9950943383091012  0.5055142367895733  0.5002502766037510
  0.2411699578464885  0.5029151539286689  0.4997384437235289
  0.4920324333235788  0.4886069120069789  0.5145878189178085
  0.7514115123826539  0.5082828658278254  0.4909186397439660
  0.0010004143906769  0.7477679390250948  0.4981266438761872
  0.2536017425849113  0.7537850585387613  0.5073599882409655
  0.4788804268737731  0.7482186645621840  0.5248813706029470
  0.7591598511584777  0.7454699953668728  0.4825465011933898
  0.9994464914653329  0.9912140055803593  0.7558548632169033
  0.2820402817429788  0.9984856878004419  0.7314902300819105
  0.4921167102989750  0.0084762958241292  0.7439478983972426
  0.7313251623543562  0.0051787777264204  0.7617833495448962
  0.0032319296407493  0.2453206643860646  0.7487682546252123
  0.2365476788238594  0.2520054295623126  0.7575795223957540
  0.5107880675308286  0.2630876608693050  0.7425404593676416
  0.7401688667919797  0.2572376355385977  0.7416655049238698
  0.0072245038057679  0.5169448050070782  0.7520850398285219
  0.2701762251211858  0.5091855847192068  0.7337445796717891
  0.4985573115639272  0.5058327282987438  0.7404510157324738
  0.7483860042881696  0.5184652903146330  0.7433240174205591
  0.0006218896950126  0.7522852730004949  0.7281052524918772
  0.2316748329997395  0.7744937975452376  0.7409426387213530
  0.4898626661057579  0.7699669731192890  0.7365893531761013
  0.7597816618128450  0.7389892280834391  0.7609325863670435
  0.1141563605531749  0.1184912040455162  0.1297344282203676
  0.3814995078953437  0.1208400643373859  0.1156338473142364
  0.6150865690017601  0.1355423552871868  0.1341560018686613
  0.8650492503515841  0.1259772637201572  0.1227454151847642
  0.1122777677777955  0.3885528817813028  0.1200486537758467
  0.3980821747818712  0.3702345413320166  0.1217676532814564
  0.6211728533122750  0.3736703836051026  0.1332688202711480
  0.8790474840064646  0.3794200302355292  0.1115750599192415
  0.1203548130299980  0.6339500527506131  0.1293146754928745
  0.3581628161514006  0.6070765739796764  0.1458374436303766
  0.6237935493649759  0.6235707507089024  0.1224685674949637
  0.8659541206445840  0.6305117193700330  0.1191756478938408
  0.1364083394926540  0.8868517071650500  0.1077363224915804
  0.3852578845110808  0.8581209477917724  0.1299991912610537
  0.6116958434951179  0.8620764707777099  0.1429287002413008
  0.8819665416290017  0.8721639032408831  0.1305731422682785
  0.1344903203319744  0.1301814632742777  0.3883520758531656
  0.3767341366379633  0.1334627630105329  0.3872143063598854
  0.6268288715710530  0.1274258298439339  0.3581332276904801
  0.8778953761353401  0.1204550415105771  0.3764166296508237
  0.1305139389747718  0.3745317129212489  0.3849214693942842
  0.3624016404789178  0.3912542124293894  0.3823159513156918
  0.6326908422380457  0.3688945817692367  0.3745082271601583
  0.8772056709440743  0.3800333206415200  0.3591242279740605
  0.1265404144531651  0.6442461293820043  0.3642677029587081
  0.3679174885896296  0.6407837485631953  0.3670346789221023
  0.6257597277272776  0.6113557417788654  0.3813932619587188
  0.8766149134316525  0.6194841367327600  0.3883990946770544
  0.1118885006398168  0.8869963333810233  0.3841977918140718
  0.3725608025503256  0.8777897461229306  0.3718685405660384
  0.6317272704474214  0.8806874545519143  0.3787485407003853
  0.8730418401078187  0.8670835288022247  0.3927515859622846
  0.1301764134715433  0.1206411762099379  0.6377201769585010
  0.3675369198453328  0.1471901634120618  0.6167441212601430
  0.6294926523064389  0.1119304093900278  0.6399405890501133
  0.8895572281123978  0.1012159086211424  0.6343549217805843
  0.1351256932655606  0.3764042617436790  0.6106446676094673
  0.3623031355576094  0.3553059823672894  0.6405373830212178
  0.6369260785171369  0.3818316389683448  0.6179198446283412
  0.8714509501469886  0.3527476971233444  0.6381054638222229
  0.1428276427582291  0.6341037589264752  0.6026592138658984
  0.3768781569055366  0.6230305615110261  0.6264268245088539
  0.6101024896927401  0.6300061714449625  0.6286285038751394
  0.8723824162332730  0.6408831655537224  0.6059039281031038
  0.1289003213312809  0.8709017202845969  0.6197663439792760
  0.3870196966267442  0.8667537438195814  0.6222955118161899
  0.6290828915470967  0.8617796078733082  0.6421055627051316
  0.8646559326099871  0.8740426069918380  0.6320557250289129
  0.1159425705284522  0.1255883435530503  0.8800036053383002
  0.3788452372494954  0.1356219846873227  0.8612221197513867
  0.6209196042941738  0.1369606302890833  0.8710944417391573
  0.8808251004310625  0.1148231912185195  0.8694450201532462
  0.1208979375201466  0.3750708470752769  0.8775979748907374
  0.3730784259851383  0.3587974962375322  0.8859415069569739
  0.6288619623994856  0.3621019202798401  0.8782293077610196
  0.8851672169188736  0.3804894208426929  0.8696822608288717
  0.1181422848445680  0.6163328725538730  0.8883577874500184
  0.3758078905970957  0.6123585673049440  0.8784596657056710
  0.6144181654118589  0.6315233278884151  0.8763750235777477
  0.8846466800255934  0.6068539635292002  0.8789127753570275
  0.1239141889862361  0.8761006616607718  0.8774961093311476
  0.3512376008443873  0.8548146595938497  0.8897209830010949
  0.6206355094585303  0.8841180177443675  0.8658297311215738
  0.8684655825737180  0.8837785045002695  0.8726494593590918
