generated by phonopy
   1.0
    15.9923497217343744   -0.0000000000015236   -0.0000000000010772
     7.9961748610645493   13.8497811253384029    0.0000000000003944
     7.9961748610645493    4.6165937083140518   13.0576988688087816
Na Cl
  64   64
Direct
  0.0009206419882536  0.9932021231969267  0.0140638572213077
  0.2152425484793150  0.9995531249333748  0.0322642822608538
  0.5129933077144232  0.0143762682480138  0.9776029263927289
  0.7503511544017403  0.0100502879804448  0.9988496414568419
  0.9833406148578142  0.2413999438965198  0.0192260132929663
  0.2427837677079067  0.2490840575834443  0.0140894287422453
  0.5127002266649295  0.2277520954153043  0.0121441398775406
  0.7357066700042620  0.2635886245352983  0.9967192482113544
  0.9985149470342588  0.5039126734382849  0.9960766376475868
  0.2320932730958385  0.4998948756253355  0.0165722810063296
  0.4877089865582933  0.4978867603602117  0.0067378692434098
  0.7626583480939528  0.4861605704007889  0.9993589969283641
  0.9934156928201736  0.7461662068453824  0.0101925380150703
  0.2387294908399553  0.7445680328127269  0.0134115494958467
  0.4943415823246296  0.7656304240815098  0.9982839289002822
  0.7419010447962332  0.7515927001282077  0.0119990835763062
  0.9947937229293152  0.9910568118213283  0.2530603240913292
  0.2468622161096212  0.9984145763408772  0.2509459234596804
  0.5032380270802665  0.9900090577992963  0.2657743304140487
  0.7343344605775523  0.9952325755232518  0.2611249045631174
  0.0049934725718096  0.2498237817085463  0.2454763773477220
  0.2492774535397208  0.2599398864318082  0.2306998329480810
  0.5088857386799739  0.2521506901516842  0.2512025916955039
  0.7642281858291285  0.2406542887863260  0.2387100959055580
  0.0018505908680717  0.4990912199453863  0.2432489792485095
  0.2336631157029616  0.5105468832936558  0.2474841331655084
  0.5099006953130690  0.4907174533247031  0.2601936358284931
  0.7421978106016220  0.5138491063486776  0.2554927633822853
  0.9922289650344357  0.7445935446958171  0.2588083407911262
  0.2455290010947244  0.7366688315019443  0.2538573979734660
  0.4843032219380446  0.7467619241466736  0.2559648790711429
  0.7361443919411054  0.7519986502703268  0.2427446092992163
  0.9995855133182660  0.0053562711104155  0.4871972645051600
  0.2575841249184326  0.9944063971471736  0.5028870561534112
  0.4912653773715813  0.9900166671916275  0.5001679540416649
  0.7502152472983370  0.9997571454095165  0.5049179576325945
  0.9916809639004213  0.2739176527517209  0.4985412464664958
  0.2443942822868986  0.2551833125855288  0.5059073956432288
  0.5074494802126962  0.2354824349715781  0.5147218525788801
  0.7479923288729021  0.2372363374060187  0.4988928590874957
  0.9818897590321531  0.5110922658109747  0.5128409455642589
  0.2534972831371901  0.5050158321649023  0.4992862032398461
  0.4976041387114386  0.5085968234150585  0.4966027978238759
  0.7405554166327062  0.5160563741881437  0.4931000201178575
  0.9924952739861322  0.7474759109861480  0.5063562084733951
  0.2697780073571180  0.7320299428753296  0.4975133986802600
  0.4922002669742380  0.7527070569941361  0.5045217194523471
  0.7633520988299917  0.7463215907983557  0.4901605060000003
  0.9931457080816212  0.0033163561031027  0.7428633945372783
  0.2575376602670309  0.9828460402730516  0.7546629702096034
  0.5115325999604339  0.0014186929049502  0.7528820894606227
  0.7620472465473638  0.9891513746555932  0.7581063341847937
  0.0072588319030201  0.2554599035539422  0.7370685966639517
  0.2304124471868383  0.2640345931789227  0.7687685571791688
  0.4959464918272439  0.2654541410177719  0.7376152757947305
  0.7352255154980192  0.2534354726978643  0.7507419021246204
  0.9882773223977478  0.4948531065760364  0.7403017792955220
  0.2579626022978357  0.5003519014834823  0.7434121471888356
  0.5092430168669027  0.4891768009972604  0.7569289070375559
  0.7629765866011555  0.5116124355905829  0.7333438001729247
  0.9970493648133996  0.7582407073388346  0.7414341578630205
  0.2427519767197409  0.7640801587434241  0.7375603794177782
  0.5104189134987605  0.7469236421718501  0.7448112653176475
  0.7421252953658188  0.7539570190086222  0.7671944970040312
  0.1242777152328256  0.1377589525122423  0.1238690772905807
  0.3799670410609085  0.1187986207586834  0.1369576531020273
  0.6469993433573660  0.1035750332922704  0.1300073050380038
  0.8883339240872744  0.1229370551989325  0.1233638323429114
  0.1286877396157203  0.3661563975018342  0.1220306900048282
  0.3702026820144528  0.3579979781052714  0.1355451392530021
  0.6243912089415986  0.3542358900512600  0.1329459204780349
  0.8767390983935514  0.3885274187434436  0.1154683833233862
  0.1295210995990241  0.6129696100265349  0.1169725143812437
  0.3601735592262383  0.6163573041891153  0.1362268756816903
  0.6316988077367989  0.6178453781268500  0.1143784063728113
  0.8964654381075811  0.6216182486228135  0.1198800304331747
  0.1293638111469833  0.8774784147361743  0.1298130970508386
  0.3796725011795815  0.8971145729507307  0.1146243519556884
  0.6231619518451973  0.8834602382045686  0.1158980289246303
  0.8753618607713222  0.8669272006531241  0.1301153632010532
  0.1163318681256894  0.1290315864728915  0.3741728953718131
  0.3812808866555898  0.1325650955818143  0.3686155970075907
  0.6259795830051962  0.1210489451054453  0.3780400031312549
  0.8644244589416928  0.1174016703975945  0.3827094694977174
  0.1257489588802342  0.3794107439179211  0.3721275640510032
  0.3714161008233727  0.3751014656597792  0.3982643233864746
  0.6275523536131500  0.3793110942535727  0.3787412913659168
  0.8665580760062489  0.3650841645722250  0.3755375593339305
  0.1105667376138674  0.6247495064526634  0.3905003951536403
  0.3763431901348225  0.6266619788727684  0.3732708870879570
  0.6257022230208826  0.6139936203581495  0.3674475817274961
  0.8891376166463804  0.6138909603130057  0.3706272525165588
  0.1160547627791935  0.8716439082859948  0.3803328038644481
  0.3587503276167940  0.8559318261033980  0.3656921946140413
  0.6128087151438568  0.8804843123600491  0.3807303504054920
  0.8750982837878479  0.8686127090852178  0.3839735554345410
  0.1226381669182241  0.1363093947624993  0.6142324416937367
  0.3890080961363418  0.1513946828869342  0.6145752949875480
  0.6164681421256556  0.1211140463510241  0.6493657862955583
  0.8846080587162580  0.1442569633192941  0.6190628372942074
  0.1250953916347467  0.3782987958971740  0.6271042616913496
  0.3641401360369949  0.3955751086924402  0.6195039979540018
  0.6151534689109003  0.3815570850415145  0.6251308612570176
  0.8577840796888826  0.3673679851446244  0.6372111201903707
  0.1411970012075137  0.6306341006884691  0.6182964642436912
  0.3698467660449918  0.6187777125213327  0.6286395989801173
  0.6469937019276385  0.6241163903874409  0.6035244551714835
  0.8868910797542223  0.6197325438507177  0.6203449612641316
  0.1240630092784260  0.8622784086644870  0.6212839295280222
  0.3884610696300766  0.8697510717512839  0.6246978610911551
  0.6134273748649661  0.8804222520249964  0.6368602649550741
  0.8835128004953700  0.8740349054074676  0.6173917147784916
  0.1291500653924733  0.1236098594293801  0.8696399362414773
  0.3754484322061101  0.1180833328184373  0.8575219122268743
  0.6178464176786138  0.1085313947218393  0.8916599417503693
  0.8684011037011055  0.1228311129364276  0.8906036854742042
  0.1280942467792098  0.3752491836641470  0.8633874095127648
  0.3708136641312593  0.3751210399088270  0.8751848076387870
  0.6307182860521315  0.3678054185736063  0.8794682044715983
  0.8773733246118038  0.3754134345162949  0.8802256717675006
  0.1252508688954981  0.6260852753551858  0.8828590477175380
  0.3625501467794766  0.6352180569052424  0.8799446440846257
  0.6391269153016343  0.6132325885024369  0.8658759334324683
  0.8820844959587730  0.6394920747406068  0.8536486153588300
  0.1284977646511050  0.8940103930012069  0.8606353133718219
  0.3801037304748344  0.8680517694454116  0.8664574772687970
  0.6202867296240711  0.8792794987222006  0.8670836086488753
  0.8657946675025043  0.8905032690944028  0.8747171172249880
