generated by phonopy
   1.0
    15.9923497217343744   -0.0000000000015236   -0.0000000000010772
     7.9961748610645493   13.8497811253384029    0.0000000000003944
     7.9961748610645493    4.6165937083140518   13.0576988688087816
Na Cl
  64   64
Direct
  0.0122733471823364  0.9813370212410835  0.0080135421330131
  0.2441583465932346  0.0126988618239259  0.0115763478090176
  0.4982163352885733  0.0069841655020503  0.9849518469169929
  0.7452290377553340  0.0067518687071995  0.9968193529329941
  0.0070565784857005  0.2532965669608135  0.9903470418461742
  0.2536990717939726  0.2518405024581797  0.0010666475594915
  0.5054222221752533  0.2493608335066256  0.9941396191865364
  0.7693486238504066  0.2292737855979075  0.9971818946888688
  0.0134889425342288  0.4856034872006719  0.0046004909888568
  0.2437524841016829  0.5101035781422736  0.0184917130555507
  0.4905569050236527  0.4897240470983161  0.0130599136946667
  0.7541543590952009  0.4926308396761122  0.0158669370243734
  0.9970727587478384  0.7528045388730847  0.0047299599371550
  0.2497993745217230  0.7621066603345722  0.9951638631320430
  0.4880408054579851  0.7474161562935249  0.0168750390043458
  0.7628650655474707  0.7577797029864634  0.9740359388692356
  0.9858629769748207  0.0023556381474421  0.2452730547703335
  0.2438857996051666  0.0053579775911256  0.2656438127229884
  0.5122869862146333  0.9995780943212369  0.2254789313054268
  0.7620106122504544  0.9972954483808913  0.2345748427245938
  0.0011581752533392  0.2440010054256124  0.2471824481602902
  0.2431974553080049  0.2501538841639926  0.2435108779319296
  0.4955549815446187  0.2395176284563107  0.2704531769799596
  0.7476359083975554  0.2230718339321016  0.2595982044241489
  0.9967073559170680  0.4900396631438850  0.2512096893959190
  0.2366946328940797  0.4872986116958506  0.2568828844622271
  0.4957203616366203  0.4972192752417419  0.2577415405990519
  0.7473314842248657  0.4927590511456580  0.2668533349363028
  0.9975685541397796  0.7456753130734027  0.2525112524804684
  0.2814479911693633  0.7349752627752126  0.2257171294295579
  0.4881341058759745  0.7445986361395136  0.2687621129459168
  0.7331061098007930  0.7667980744737002  0.2566797935440123
  0.9939786233413490  0.9843328535100091  0.5184615163393986
  0.2457502980698346  0.9770919720576885  0.5031085260317099
  0.4941424557038111  0.0101259393853600  0.4984221542515010
  0.7587772982735397  0.9905783217767096  0.4917141465031508
  0.0071351806472579  0.2372948577379414  0.5025622038044100
  0.2601615172373747  0.2616607852692994  0.4790724398101145
  0.4931903499139630  0.2449896838752266  0.5148737525257314
  0.7513202698540322  0.2572759249949518  0.4820950830534091
  0.9893949529973413  0.5043418487603547  0.4993213394744805
  0.2400373446622523  0.5135145173436553  0.5079653712897358
  0.5079361992693416  0.4933795569403601  0.4940923863917367
  0.7273754194004722  0.5089658217500557  0.5039886822509736
  0.9927152023130809  0.7522445209317513  0.4936737309070742
  0.2387816000953352  0.7537997061865721  0.4999308130408217
  0.5107198469886565  0.7371255835158728  0.4929485104539492
  0.7336073598163182  0.7631272666344616  0.4989460426986262
  0.0012672379007149  0.9960686110658534  0.7424205118395907
  0.2430534606838762  0.0110545210062609  0.7629809669873061
  0.5114449220297493  0.0014879085097634  0.7433306453835029
  0.7483707942302553  0.0115333457482692  0.7493997651626724
  0.0086759982909890  0.2489433313047903  0.7323139085365424
  0.2486960486084843  0.2498112323570387  0.7542348429459431
  0.4881693533961941  0.2523941815798449  0.7543286671933982
  0.7550492947114720  0.2576176699424215  0.7580822541837519
  0.0081299443575257  0.4936598590316364  0.7471810365228666
  0.2552935614112468  0.5119409978117498  0.7475020048718889
  0.4987510998657275  0.4997491229680663  0.7424302392425035
  0.7580878378297222  0.5001747427314387  0.7249406695049944
  0.0096989846657257  0.7570045045665941  0.7416660486952804
  0.2659299499679461  0.7473400020084500  0.7316264559462874
  0.5157701455220947  0.7289704061993425  0.7525826123499116
  0.7571178207314231  0.7504306764030571  0.7491464760268026
  0.1243475877884150  0.1333065090662748  0.1251641794343150
  0.3998568497017791  0.1066780225977625  0.1135874078380791
  0.6299865769087865  0.1182937218077639  0.1189243821382305
  0.8597464803559809  0.1355001148063521  0.1353840699393707
  0.1303386074681593  0.3759706359270896  0.1230305519650155
  0.3702511334985062  0.3850494138844037  0.1161886841573247
  0.6191456001352160  0.3965805006709315  0.1149116652480454
  0.8648887943570833  0.3832796386401863  0.1184706211594199
  0.1431104444980051  0.6178890184228848  0.1243006670315253
  0.3657340002491219  0.6228650483725368  0.1363418048786395
  0.6120132706588063  0.6329390207620478  0.1488564510799500
  0.8531209235701843  0.6268488751678541  0.1373000134068562
  0.1117871702067174  0.8765469456056065  0.1317998506251702
  0.3730541264079424  0.8782619705072324  0.1160742582199590
  0.6362945686548953  0.8758349373235730  0.1361928617244853
  0.8911341512794401  0.8741165866817293  0.1246005592458046
  0.1040351127645096  0.1466727072617887  0.3731056728724821
  0.3749752867502684  0.1311478345803969  0.3790792370229101
  0.6315460174295695  0.1430094984754282  0.3636264384146177
  0.8850412619083721  0.1087491619230496  0.3967344895721892
  0.1166276515850630  0.3761921082259114  0.3817177228835988
  0.3672586294395106  0.3778596370795069  0.3887839079518254
  0.6294190483179665  0.3782669693958993  0.3596731883200479
  0.8812764628857503  0.3794902621840249  0.3686613748001954
  0.1237484326026122  0.6284178508223798  0.3789449856820995
  0.3872063378476671  0.6067129890058858  0.3700537017775844
  0.6214751018784213  0.6254293462611504  0.3651836993055840
  0.8702699380606345  0.6256620746751888  0.3741196426480768
  0.1293566641227259  0.8721642833740844  0.3653398592706302
  0.3614729800511385  0.8721474655401356  0.3952796060592295
  0.6293461429471662  0.8947402237773114  0.3643936376781461
  0.8652884117693121  0.8772295855410676  0.3904442765748442
  0.1259607689545827  0.1227035127761853  0.6183166853506729
  0.3879343642525160  0.1263456734777057  0.6042236230970628
  0.6365580598161966  0.1329941534706656  0.6083208122794143
  0.8679962133442427  0.1212409771025192  0.6334299044200941
  0.1242092213166652  0.3638841251899710  0.6379383428406378
  0.3825227954316278  0.3770461164444220  0.6125185461075978
  0.6317430536564592  0.3730431693774986  0.6250741776523703
  0.8751254480874652  0.3806694641366390  0.6248097451075887
  0.1281477704908707  0.6210818737312988  0.6258348760516776
  0.3661580623811692  0.6359506802039905  0.6217416361304307
  0.6402159057403410  0.6273897831518038  0.6152619647295646
  0.8607866180742845  0.6283755523448457  0.6405504129938193
  0.1319566067238279  0.8656058772854086  0.6195497888701580
  0.3711151570652736  0.8669551019071475  0.6330691009639043
  0.6404913047087333  0.8719256291278890  0.6283710597807958
  0.8868842210171193  0.8702891394330702  0.6255437909514233
  0.1223999689639219  0.1138698751089417  0.8766717641431553
  0.3895935522190361  0.1158404350553615  0.8789226610984150
  0.6426542070960158  0.1143687814392272  0.8541313885108297
  0.8795724049702678  0.1256131472708671  0.8748537850641156
  0.1276921591866597  0.3688799536136488  0.8784087146670249
  0.3776456117500446  0.3866654265309017  0.8759869299149385
  0.6218917339897286  0.3788787732984649  0.8774244421994778
  0.8718044003477567  0.3604453768312198  0.8817926863084787
  0.1129321572652803  0.6348755146134172  0.8755988563653928
  0.3635524622658400  0.6396030245791529  0.8744243226398003
  0.6368049945234644  0.6097372251337687  0.8757744749164202
  0.8705901322254403  0.6378898094376022  0.8596806014135856
  0.1405587792010326  0.8706227915061695  0.8818919796524237
  0.3803984081825331  0.8640163417838651  0.8812673437863650
  0.6200536672397723  0.8825224493222594  0.8763157025676489
  0.8693401796863640  0.8725288832854232  0.8793174459882318
