generated by phonopy
   1.0
    15.9923497217343744   -0.0000000000015236   -0.0000000000010772
     7.9961748610645493   13.8497811253384029    0.0000000000003944
     7.9961748610645493    4.6165937083140518   13.0576988688087816
Na Cl
  64   64
Direct
  0.0190921852050974  0.9852169301332687  0.0063181769983639
  0.2547133780968171  0.9815787935553157  0.0091442043685089
  0.5085594934723561  0.9907212680855250  0.0230678604312045
  0.7350857370513088  0.9950845490065896  0.0137835815748620
  0.0061771705238030  0.2428475633937208  0.9986483460398679
  0.2569630009240703  0.2362054762985199  0.0074604210513354
  0.5075788345653069  0.2339415664596078  0.0047926374376145
  0.7516294051284267  0.2333796984454850  0.0242108508147146
  0.0018534525646033  0.4981893272407064  0.0078229716513375
  0.2307622708824958  0.5182657833348756  0.0038953007806562
  0.5021079267355442  0.5050666934068263  0.9911582814585088
  0.7518659444857164  0.4946244059335425  0.9893340133999429
  0.9806531067636786  0.7660909972666021  0.9966154957136226
  0.2505186532118986  0.7465336992167458  0.9948235752068098
  0.4911823319292292  0.7432347486617353  0.0183889385475308
  0.7596838085850015  0.7312151762161712  0.9877899605053778
  0.0105312403122893  0.9982126782858995  0.2320810865028787
  0.2380413493489737  0.0063487019426068  0.2370046119438725
  0.5128954837672445  0.9910091036685530  0.2445420585290822
  0.7488907919910814  0.9957512058517881  0.2422814062120435
  0.9844165402472994  0.2697208101492397  0.2482755915950538
  0.2415116538252417  0.2468098288544750  0.2424013092341440
  0.4905476845369494  0.2439067287418208  0.2551091072622008
  0.7436519919696684  0.2683360876666314  0.2497343061858516
  0.9855706222085137  0.4985488571543568  0.2608415340414149
  0.2648992722129531  0.4878746763758718  0.2392903256751991
  0.5057047496829330  0.4984329182162580  0.2413103731232983
  0.7436499056215083  0.5085587686952340  0.2458077207182813
  0.9862940922255539  0.7703397443224815  0.2275433340675121
  0.2405050482818716  0.7511642531216440  0.2485818979440129
  0.4817794385540920  0.7623893105965063  0.2636388482270576
  0.7368339846466788  0.7665647447214962  0.2638732907337553
  0.0010952910377640  0.9922885982315210  0.4991142534340633
  0.2513316788134913  0.9840251148333332  0.5054219321636432
  0.4917999831443118  0.9935924705581127  0.5040846747369973
  0.7762169224909746  0.9735657439139770  0.5057975115950726
  0.0162064154356960  0.2451127772105060  0.4940040751761293
  0.2574701260234042  0.2475339819443014  0.5094699388482529
  0.5038141989998757  0.2410090549343299  0.4844723067228153
  0.7569181923487512  0.2433516419719394  0.4988672728025649
  0.0009164357051774  0.5044435622665592  0.4941119798507125
  0.2559692473734309  0.5047878022161066  0.5168229077021554
  0.4913984752549235  0.4897519419908097  0.4922047692493448
  0.7401182063584352  0.4918408103101491  0.5063386970940305
  0.9955881081799721  0.7390949555088993  0.5089308388524377
  0.2499834260549159  0.7529592996458013  0.5238550771014073
  0.4924624997268801  0.7661779056755872  0.4950441695161394
  0.7583511236367759  0.7416738241568672  0.4892442380527144
  0.9899910465644632  0.9955730323783867  0.7529720682228629
  0.2397195487527765  0.9981854092816587  0.7715483565619145
  0.4968966737283421  0.0100199141749424  0.7468133711622034
  0.7470833642206935  0.9766828908642556  0.7605113774961760
  0.0040380793447959  0.2666744859530469  0.7218472618019789
  0.2384077018582897  0.2661315696743318  0.7588069263007555
  0.5000451074068295  0.2558976996199487  0.7591776585778111
  0.7473951627750095  0.2604709189484646  0.7562769907362143
  0.0083979763681415  0.5022845675305383  0.7470206969926907
  0.2469927207503693  0.4871514889270813  0.7749630995027421
  0.5034688723070911  0.5101161451516762  0.7436801038166910
  0.7345775900446004  0.4856094380658972  0.7613331227949504
  0.9860085737590814  0.7549480987310215  0.7662770502196723
  0.2512127736431155  0.7592252938321752  0.7374198068056655
  0.4901898712984680  0.7406072922335918  0.7544554623611938
  0.7563138957758562  0.7458127492648630  0.7319345500935306
  0.1236785389308644  0.1270439555666922  0.1199659206392451
  0.3756155699002330  0.1356860544324907  0.1161369785145993
  0.6277928653467343  0.1189371595380557  0.1256883932063813
  0.8837738003845262  0.1463516220542140  0.1073641443417556
  0.1208516473495399  0.3615560930048576  0.1287906516021624
  0.3665530809418760  0.3884694469185626  0.1085868882456070
  0.6217422165109894  0.3731244732365545  0.1249623028054797
  0.8735098545638000  0.3793184799730323  0.1205929227382854
  0.1210498638425767  0.6183238148354353  0.1231637780998668
  0.3796267258082993  0.6404948264810736  0.1158691959164179
  0.6226741912088882  0.6309318496209453  0.1306459808193619
  0.8685675511234593  0.6416678841948287  0.1168052262170519
  0.1168040623240341  0.8665917991789872  0.1251022807701424
  0.3735268405361396  0.8717040500872116  0.1232192750218429
  0.6338294729371291  0.8830913701484178  0.1191482345113010
  0.8626424947025570  0.8802408331597936  0.1382287441611832
  0.1261287165564346  0.1210916276447148  0.3810208458732410
  0.3798095860972960  0.1229080914920135  0.3816329185085778
  0.6238115248875193  0.1385299308372269  0.3529699863583585
  0.8770862359919870  0.1285888650745664  0.3576785024160983
  0.1268601606752098  0.3653202375245772  0.3872985059104661
  0.3711186699130309  0.3709072198832314  0.3791367535449923
  0.6249579378300594  0.3784451769070094  0.3783538525254181
  0.8766528325020971  0.3631574815801002  0.3789257437060067
  0.1256619167319544  0.6127766399200699  0.3856305028053390
  0.3711345287048676  0.6216028822016921  0.3735549019473962
  0.6353986717691548  0.6288650557026048  0.3724463424790757
  0.8634801677456500  0.6297712335011787  0.3886972251974978
  0.1299408925784363  0.8758341946318674  0.3750198903748204
  0.3493995415661277  0.8795604813884744  0.3833642221974533
  0.6274747508362013  0.8750102929543848  0.3699368023364847
  0.8844669183781866  0.8809591588195275  0.3598646392206979
  0.1353010589435280  0.1239138353218378  0.6145999421541511
  0.3786344500256210  0.1173691983238652  0.6232083829039374
  0.6043965817414101  0.1332294495980329  0.6332153423786875
  0.8776897128571526  0.1322807514917567  0.6157787244504915
  0.1261197999388307  0.3712241052165315  0.6231574273005783
  0.3849036605672889  0.3746123044499239  0.6251842029748244
  0.6319496166515980  0.3766695031116631  0.6164787362773457
  0.8710743341404572  0.3862942906004808  0.6299485594670051
  0.1184012117826179  0.6199686625509173  0.6472444798240776
  0.3808900920443025  0.6317307826506346  0.6149551247371533
  0.6241546820170828  0.6190994969155186  0.6290054704086609
  0.8775132349267030  0.6228354297703937  0.6235397757731018
  0.1249231654580812  0.8597297461503282  0.6325191825988251
  0.3640457177131834  0.8772665071470200  0.6359150932465281
  0.6264304711529646  0.8709957760140349  0.6203875451842690
  0.8590737835562794  0.8778150075384997  0.6358452291764021
  0.1221889228242135  0.1412859156330004  0.8739416999450155
  0.3801788437102356  0.1121446274553844  0.8815490025407786
  0.6160511479172218  0.1249953498769891  0.8800065655545318
  0.8600386357761611  0.1475764588044517  0.8589785303306824
  0.1279600753711853  0.3727889514298224  0.8837402541060362
  0.3763984408681552  0.3614582619335116  0.8661885740336303
  0.6354186987484720  0.3839739859428412  0.8705556898026927
  0.8666690479868403  0.3677379889208321  0.8758415279080374
  0.1357942686977011  0.6260322567846406  0.8733540267692916
  0.3770508506996922  0.6254358827982016  0.8700719480757034
  0.6286903649916826  0.6182743666534773  0.8746771658959562
  0.8839134907672312  0.6279514878625456  0.8726501852910709
  0.1350168159669489  0.8807231312728143  0.8654435159093935
  0.3753482010829056  0.8816484651731226  0.8633688140141170
  0.6117382886364753  0.8801324160003834  0.8883803690840915
  0.8671570912416477  0.8622202552275378  0.8821141225405603
