generated by phonopy
   1.0
    15.9923497217343744   -0.0000000000015236   -0.0000000000010772
     7.9961748610645493   13.8497811253384029    0.0000000000003944
     7.9961748610645493    4.6165937083140518   13.0576988688087816
Na Cl
  64   64
Direct
  0.9858221972983500  0.0040793926587675  0.0045733055566567
  0.2670225101166688  0.9966751356027723  0.0010483058303459
  0.5091910933532594  0.0001360822999346  0.0022468444888503
  0.7606953585258428  0.9972611116714346  0.9770795478382843
  0.9981536478802910  0.2644778698875520  0.9755683517462364
  0.2378538732596925  0.2388514430117945  0.0003316732067194
  0.4920425616880645  0.2519238913432645  0.9958814742089817
  0.7486063925553751  0.2713528968100288  0.9873812235709752
  0.0052690169754004  0.4994185923772690  0.9915606785774611
  0.2449643648538948  0.5047406958224435  0.9843426323624394
  0.4961413679863729  0.4994125743797884  0.0043815322731685
  0.7425727194547537  0.4976987705028860  0.0184385444223823
  0.9965920639092410  0.7408899959897456  0.0002196223821290
  0.2403281334801104  0.7682692943635864  0.9909146490438255
  0.5037252402854276  0.7597049552679039  0.9909372067131589
  0.7580541818165607  0.7334756099800055  0.0116396603751418
  0.0066700035863830  0.9975209564581033  0.2511308553799061
  0.2425211384018552  0.9987830154210570  0.2641682567670733
  0.4836863351529226  0.0081428442353379  0.2672539478231490
  0.7487565493070470  0.9829609669405885  0.2502261623138727
  0.9985382261126036  0.2708364029707039  0.2355296619535780
  0.2419367444681867  0.2512741586205860  0.2598218981734494
  0.5027490398010321  0.2444101526993664  0.2581845984675937
  0.7472968853669444  0.2466067573649903  0.2504904634805137
  0.0093113625102809  0.4999347243844647  0.2697832049572581
  0.2551439076063320  0.4919461637547139  0.2441278975747319
  0.5238393575459689  0.4748821711184921  0.2462424342918821
  0.7224619750429709  0.5044364352768569  0.2560770825639778
  0.0067591209135196  0.7759797916287323  0.2287033257237365
  0.2569151531992309  0.7392382824096159  0.2440017722785362
  0.5143329566029837  0.7262518797170239  0.2360497105500597
  0.7350840407474997  0.7602337396748133  0.2535909713802701
  0.9961654968231267  0.9937369866353232  0.5043051278255272
  0.2561943310536182  0.0022319425201565  0.4912677466942723
  0.5097199779174282  0.0134278070091083  0.4921301476073354
  0.7349401840983433  0.0089719181051212  0.5144068816918453
  0.0104286526887148  0.2631858086540337  0.4746813846902234
  0.2342913219073092  0.2471017220609940  0.5035147446711324
  0.4936550342076235  0.2490195034907699  0.5017656269053749
  0.7643893743400065  0.2620582925127746  0.4866232975214407
  0.9882410257514808  0.5067174492508119  0.5002397283727604
  0.2638393413002640  0.5084922794748861  0.4890494024175456
  0.4947748275232539  0.5005549943939256  0.5156272850392261
  0.7397152925013963  0.5062815980017866  0.4845161119889125
  0.0143757369740640  0.7393406855075160  0.4918460398845216
  0.2491342234600629  0.7537955803901220  0.4984509573037869
  0.4900775626191702  0.7476986859637763  0.4934349085584737
  0.7407835438000406  0.7328921678218954  0.5173231260451822
  0.9988279134010345  0.9895288099076808  0.7409531021842028
  0.2524240879655295  0.9993826523105842  0.7512406477058682
  0.4928329526709026  0.9970701541928360  0.7552801887027030
  0.7589541462404907  0.0042123500796770  0.7346918568540999
  0.0045889341853364  0.2562174070170533  0.7361503670313528
  0.2505896445314054  0.2340741118764672  0.7592085902127207
  0.5118597850612264  0.2311624816298992  0.7594531966229908
  0.7410777843601934  0.2464418837016621  0.7522469740125737
  0.9866682044716564  0.5110029351923020  0.7478760411451035
  0.2449298111440666  0.4900297990215351  0.7497944003798388
  0.4940030966422099  0.5103201090590893  0.7222923121676436
  0.7383155019757183  0.5299117957109016  0.7500405872951567
  0.0097972900289525  0.7261236138523802  0.7528345291476820
  0.2400607925204423  0.7422380812272635  0.7533897143354127
  0.4921229032210427  0.7684213582650169  0.7415094254118868
  0.7305413313683585  0.7581613667406775  0.7621900198055899
  0.1354335072148490  0.1207594715360454  0.1209980706672716
  0.3962803876201800  0.1058832172939687  0.1235593997585974
  0.6082090521276341  0.1446557262633484  0.1304745986784046
  0.8828660976275494  0.1295238103430492  0.1171845082011262
  0.1109875669639565  0.3841958541194750  0.1303511271920959
  0.3723116317284935  0.3677707576394220  0.1282178004054199
  0.6297875368013237  0.3739136229314183  0.1279623382523000
  0.8850109820836253  0.3816368837988324  0.1194576706840995
  0.1295235345049323  0.6273995481387145  0.1245696248292729
  0.3766257245244479  0.6249812208648928  0.1158326582436384
  0.6289792881148086  0.6274872288800102  0.1195805242224171
  0.8724667047344016  0.6155190157612975  0.1378761919939155
  0.1255199986445849  0.8620176144433116  0.1354174106014459
  0.3822397139830764  0.8708190728120729  0.1321960619877312
  0.6094481720897656  0.8748611775897993  0.1350386398652016
  0.8708489848597250  0.8710960645260161  0.1348204933830948
  0.1307004592952575  0.1194389882387212  0.3663542012129611
  0.3759191899784661  0.1445926670426921  0.3680398714682749
  0.6265052150764336  0.1170747142960670  0.3691686884186348
  0.8839363987108515  0.1269757727300834  0.3615115111292339
  0.1162871415611393  0.3745633677458376  0.3822285439132131
  0.3768878951305304  0.3701727959722138  0.3824040753780780
  0.6101612556069500  0.3837908090021134  0.3740741937287614
  0.8516904304588691  0.3764314045786885  0.3912918672773235
  0.1397724396700142  0.6201226740761960  0.3680475327680724
  0.3663475148670197  0.6196890538475064  0.3871040274640705
  0.6287477790809639  0.6274659799242288  0.3764377602768257
  0.8657216165711323  0.6406432636870727  0.3613557642706922
  0.1124165302823409  0.8794485026060904  0.3720851715635056
  0.3798478096980542  0.8585393588748155  0.3755107282732251
  0.6010548742304728  0.8876687766802520  0.3730970611138995
  0.8685797516135425  0.8792297180710079  0.3754581116493437
  0.1314151230668360  0.1142174086954497  0.6255169865300949
  0.3712184769250921  0.1301274793982368  0.6338648336763697
  0.6135298379509005  0.1271179322160133  0.6218868014141802
  0.8780330823541656  0.1331253730968611  0.6054443916214630
  0.1209721351000538  0.3675756105270555  0.6351362140241996
  0.3709441343886725  0.3830098580395619  0.6161434056301793
  0.6325876338174973  0.3692732561752314  0.6300890076906971
  0.8806909947289729  0.3646752442993401  0.6190630147474170
  0.1209325016573478  0.6230933237955918  0.6315355218027892
  0.3836998851489386  0.6166192887059636  0.6304666401016926
  0.6406561653558898  0.6138422476265173  0.6226579223365701
  0.8826344399058291  0.6223725012385340  0.6241093821009780
  0.1484780102297339  0.8686466957911325  0.6247202150958423
  0.3651888769598227  0.8834992882537532  0.6248217960741173
  0.6243700456669257  0.8708149988190867  0.6212364861858455
  0.8604797777471487  0.8848678261804406  0.6383803006133997
  0.1231974375029825  0.1256288342017601  0.8754948411827075
  0.3556873985389823  0.1197155245043894  0.8884605630992155
  0.6375305272346902  0.1280552530213340  0.8639368674124447
  0.8532954603798937  0.1130227120866792  0.9013521826811161
  0.1195585479964005  0.3757051178442346  0.8702594205438788
  0.3710184202548567  0.3785486182506172  0.8591675094393686
  0.6341810240961407  0.3685580531225343  0.8681960462686382
  0.8650913323579870  0.3747096775982151  0.8884212586399087
  0.1194263845938155  0.6388671963119199  0.8815913225634583
  0.3838006095491717  0.6203692015008593  0.8691380335194382
  0.6222634529729736  0.6250955494423842  0.8685255877188318
  0.8708363211742556  0.6078438593392381  0.8697215493116839
  0.1303292656306118  0.8820958727386623  0.8648969303552245
  0.3725681722375142  0.8763395799422002  0.8826218407066690
  0.6188169687095906  0.8847114038714798  0.8814067620967352
  0.8747768786620129  0.8819124055954426  0.8655717078792953
