generated by phonopy
   1.0
    15.9923497217343744   -0.0000000000015236   -0.0000000000010772
     7.9961748610645493   13.8497811253384029    0.0000000000003944
     7.9961748610645493    4.6165937083140518   13.0576988688087816
Na Cl
  64   64
Direct
  0.0012988082354350  0.0059104925070473  0.0046957996238452
  0.2505383887411106  0.9970232508356223  0.0056935154557945
  0.4881134036718764  0.0179071640059276  0.9972610739112817
  0.7417571688415151  0.0042391814991057  0.0098777816695380
  0.0007766552747681  0.2473538606621223  0.9959103602819812
  0.2489373435208565  0.2421884195029737  0.0068030801594563
  0.5029721035808548  0.2592794359482063  0.0031214450247327
  0.7489245652641972  0.2309038149182209  0.0063025388630009
  0.9841750564228378  0.5143548161382283  0.9800413092250049
  0.2503342298595587  0.5081964376592709  0.0074453061461740
  0.4847647021477071  0.5123820657751199  0.9949568950609189
  0.7471093366818999  0.5076020900184758  0.9932199545223598
  0.9820280029946963  0.7595405993462652  0.9974699380499713
  0.2514521988013080  0.7540240734176721  0.9960646338794743
  0.5094986153237195  0.7606125291656851  0.9809039144089666
  0.7589886657647238  0.7624527075537740  0.9926008082939977
  0.9880049150879286  0.0098573775625245  0.2527132624176379
  0.2387212649174617  0.9908834346178303  0.2733331364314845
  0.5222841821005028  0.0049183607791411  0.2385521967849474
  0.7523630562702013  0.0041285953763511  0.2502071784401904
  0.0009426166325545  0.2454493574842295  0.2435715138646019
  0.2464785957284811  0.2277717849919099  0.2689920169869437
  0.5033974900089457  0.2493434750281801  0.2589182893158546
  0.7436015755167662  0.2439431979565080  0.2560230785883743
  0.9880014142964249  0.4883644537693198  0.2683998698934371
  0.2727104183006228  0.4922823236163449  0.2239898398349710
  0.5007639719826170  0.4999508658114710  0.2625460023545076
  0.7518183910727954  0.4923689582199495  0.2576248562700434
  0.0003565060594665  0.7383798017733131  0.2642711100163898
  0.2396406470716308  0.7552783158578374  0.2460338260623983
  0.5018006954044641  0.7454547320972769  0.2520613765001689
  0.7539414879937502  0.7511309593832829  0.2530180186186703
  0.0191298360740948  0.0042346237786703  0.4821290251163915
  0.2707717436410491  0.9909205219919133  0.4871977883059526
  0.4948845723755450  0.9977333060124489  0.5077279103667202
  0.7469527758284789  0.0039048494941617  0.4922529863103360
  0.0046353183239974  0.2485985439027577  0.4917887938216698
  0.2639223766949337  0.2363266506155635  0.4842223966868973
  0.4932860250608111  0.2667761392825200  0.4996614923484075
  0.7467517810912625  0.2626164606503770  0.5001563484020938
  0.9982243716307455  0.5045019271989392  0.4885488314504556
  0.2421794417218757  0.5071457791865424  0.4885425355703668
  0.5101409890297564  0.5156032990087449  0.4841902348618957
  0.7559423681055408  0.5186484907196027  0.4998282500073861
  0.9877651912416976  0.7703679127306936  0.4992423995428654
  0.2538913599616210  0.7453106303873298  0.4870449811224353
  0.4884469054199799  0.7504227443603892  0.5161049594070592
  0.7516075135063366  0.7378280475120192  0.5030936396474829
  0.0018567576104820  0.0064421298821826  0.7380926580209478
  0.2500997585103508  0.0071149435896361  0.7520966440416197
  0.5133343025396513  0.0049155553823337  0.7367793319568852
  0.7624091153112094  0.9975669949021113  0.7332715008285365
  0.9808095245543220  0.2482993421956219  0.7583079067654194
  0.2506500668007193  0.2713573430045223  0.7356429455715734
  0.4914243110389507  0.2446375083256867  0.7546077206379989
  0.7438291538768951  0.2399446518594955  0.7509275642562424
  0.0048407995953200  0.4964391813029562  0.7500425723969136
  0.2454432205532640  0.5000118820841324  0.7545050160271431
  0.4941729674976057  0.4929967634443797  0.7512086600531890
  0.7393899359808955  0.4884711619203529  0.7526999482916663
  0.9883130998663939  0.7416700757481115  0.7595469426997387
  0.2528891949095565  0.7627589649428366  0.7386112310740237
  0.4927491665588380  0.7569451075630236  0.7625726317476296
  0.7241029816142522  0.7628720000732150  0.7539962080358585
  0.1120317042159281  0.1320553918843841  0.1247875868327920
  0.3715640448900878  0.1180492533494651  0.1436008735967371
  0.6389244630403111  0.1325607418382080  0.1105729034776514
  0.8875017452638428  0.1218905380796713  0.1192585048482796
  0.1375767167461329  0.3697110967652168  0.1317324526411210
  0.3630757541587557  0.3964342357402109  0.1280496777546749
  0.6276275139199378  0.3558859417657533  0.1279312234582916
  0.8906722997948928  0.3709396400610865  0.0980523802086492
  0.1206780857549122  0.6271947588770052  0.1258106469129109
  0.3758080661154577  0.6117447224614060  0.1172036052475893
  0.6251648632021918  0.6296200078001182  0.1231951820399000
  0.8633925548929919  0.6399527965993771  0.1162780372686217
  0.1290259319376177  0.8711759240374451  0.1098560438665517
  0.3781566804741539  0.8554153310052591  0.1440905645709392
  0.6139644387217892  0.8697768417204492  0.1360293388777399
  0.8720104230881794  0.8850380688820293  0.1176677361126329
  0.1280363102945372  0.1312051695911593  0.3762302288916174
  0.3605374693984363  0.1165957294492722  0.3901879930587198
  0.6314297826387822  0.1152119284151002  0.3786801179383173
  0.8745044720562249  0.1291160821935359  0.3938347238319524
  0.1151444504347906  0.3884110615187962  0.3613509964282038
  0.3751598895788931  0.3869538971679001  0.3628532228596578
  0.6104728368305485  0.3874807935774840  0.3645430373035777
  0.8814061091597992  0.3702269262699383  0.3645354861274798
  0.1295215894196781  0.6192833433353675  0.3754541541146968
  0.3743644095017057  0.6210113460752534  0.3843694484083843
  0.6211720530734121  0.6279436544819952  0.3752836681552394
  0.8703223366550378  0.6269344806700303  0.3775196195989756
  0.1427143676866523  0.8551286405719589  0.3837956429013803
  0.3688943438775181  0.8656618607066522  0.3977647338326314
  0.6240572961225797  0.8881437876940714  0.3683695407304271
  0.8883923625202522  0.8628440864731710  0.3800718426589146
  0.1282534026693427  0.1109324686636107  0.6293002481475767
  0.3742290194074477  0.1073284501451978  0.6387479802387909
  0.6195744309711732  0.1285033497565553  0.6384340797769024
  0.8559894066833440  0.1392774918516758  0.6272366814411593
  0.1126908177312183  0.3625731877198454  0.6363345606794732
  0.3930828437905863  0.3608684067621539  0.6202266076767221
  0.6300076213071244  0.3846976878660390  0.6142337483427678
  0.8513684626091577  0.3923149208653350  0.6275685789963792
  0.1058901286129188  0.6383396649978498  0.6281808909938421
  0.3730924877634903  0.6316474013521458  0.6294774323237567
  0.6301189552405304  0.6107832914490364  0.6215782681986286
  0.8620802341254910  0.6207767793735888  0.6492066900790231
  0.1284479180618423  0.8700758626175824  0.6243396590933014
  0.3749631583473790  0.8860599732205989  0.6230714659135156
  0.6325548761876820  0.8771681355371861  0.6168860130742488
  0.8625917935191518  0.8861305443870432  0.6205422678353794
  0.1143665511683158  0.1282978692300297  0.8683508898846367
  0.3776060981021925  0.1168719954620388  0.8751388768926435
  0.6271291396050127  0.1399675059358878  0.8715401223204798
  0.8798985704532591  0.1257752165833393  0.8718897370950818
  0.1295280779880569  0.3862595113707140  0.8542307668725470
  0.3942404230081243  0.3529842420355656  0.8748599995371895
  0.6206352152620794  0.3801274991698286  0.8741661115667242
  0.8758188251640293  0.3770261513539335  0.8788042729903631
  0.1290733546887373  0.6111583564626488  0.8823056516119172
  0.3844578499328467  0.6236560086865383  0.8647274174641488
  0.6307301141646309  0.6080293465466752  0.8780235989800325
  0.8785127581548940  0.6400422712059116  0.8655051920259867
  0.1293141992484239  0.8780091400217278  0.8668645652007088
  0.3585860618507989  0.8651949489851660  0.8937431146113671
  0.6251160465628365  0.8644518928338509  0.8755749675117008
  0.8767463167096311  0.8831610808608003  0.8727566868870672
