generated by phonopy
   1.0
    15.9923497217343744   -0.0000000000015236   -0.0000000000010772
     7.9961748610645493   13.8497811253384029    0.0000000000003944
     7.9961748610645493    4.6165937083140518   13.0576988688087816
Na Cl
  64   64
Direct
  0.0135935900198823  0.0050631166501926  0.9970286949400535
  0.2602363959667052  0.9881022193586791  0.9946488014842668
  0.4917582138187846  0.0114706077698267  0.9994705862176974
  0.7594734501586776  0.0091064420261122  0.0009916599558999
  0.0003805506600464  0.2587040575198166  0.9911052121078426
  0.2594482668012412  0.2561820274229528  0.9933941793381942
  0.4886192088854810  0.2353259667735878  0.0051661085423293
  0.7503602337017991  0.2313120765438831  0.0117575315294706
  0.9861210295535855  0.5030579564974645  0.9951312408416411
  0.2455532133566155  0.4795751365783577  0.0153395244050175
  0.5089761872900360  0.5000970308104350  0.0033154350468616
  0.7460268592882988  0.5006702940741660  0.0054386635477122
  0.9815091304872746  0.7629889724918664  0.9986130901954904
  0.2494370431613397  0.7445974693846611  0.9929325893063948
  0.5143713296034405  0.7126899426881579  0.9823539570440331
  0.7523814316947315  0.7634033946702088  0.9854716501601607
  0.9978599533221375  0.9878335292868292  0.2580490264983196
  0.2478588355972536  0.9875723621303746  0.2732178683046132
  0.5157368786249561  0.9955505402766562  0.2396054335036142
  0.7306397092461145  0.0032345609398554  0.2528759673249117
  0.9937849292404469  0.2598289091264435  0.2490566558883283
  0.2607506737558679  0.2422706613666942  0.2471126283108205
  0.4793647190738829  0.2663498517540274  0.2488284063417095
  0.7351917978866731  0.2767139523766886  0.2527443204380309
  0.0039681254645951  0.5104893736016289  0.2525478751710234
  0.2527211583736387  0.5056401535407273  0.2550604976359121
  0.5035337225314407  0.4930040147015779  0.2588018777284337
  0.7489035669152576  0.4996605307642855  0.2533755936817533
  0.0236473172207138  0.7511344669933636  0.2315837861524907
  0.2666966457369953  0.7537644245005858  0.2230283150429248
  0.5110982690204053  0.7560349460062589  0.2475540294739202
  0.7629304927335386  0.7579447612244296  0.2505449462516957
  0.0189072314457461  0.9745949700309825  0.5120515629378495
  0.2602367968365610  0.9864503082006268  0.5067872491649815
  0.4986928768703084  0.9950725148139355  0.4766556914340099
  0.7679498778508310  0.9947466033564685  0.4884132069869868
  0.9918447261332761  0.2516684244801902  0.5019328297664947
  0.2384491269464297  0.2494290815434152  0.5095952830079744
  0.5113602378244525  0.2570133087148303  0.4880563799662077
  0.7463672978295861  0.2342804512464360  0.5180015051276293
  0.0234474021562096  0.4955369965903932  0.4935120813043362
  0.2641444868572840  0.4905509221170197  0.4939739075600204
  0.4963092506821281  0.4839269781727674  0.5082073758137275
  0.7483257675953875  0.5065982378491359  0.5051048957440816
  0.0106822640954990  0.7511867584307466  0.4931863137304232
  0.2506972109847055  0.7552507799157948  0.4895664417271299
  0.5032263898921298  0.7330334446553821  0.5049709168595656
  0.7460807649110403  0.7536241461149317  0.5083620026058706
  0.9965179733735614  0.0073265962406879  0.7417591500063503
  0.2406749011709630  0.0100076672704497  0.7486718915415709
  0.4769206333302740  0.0090181293987677  0.7486393127585873
  0.7410237632928742  0.9994393987265134  0.7478698569578316
  0.0071726957999463  0.2509824306136633  0.7488521712349248
  0.2545561027643887  0.2348672602665817  0.7597519211266843
  0.5029669932493858  0.2451344618797275  0.7408486963619565
  0.7598963134194923  0.2454553590445407  0.7560983626843265
  0.0170528924537717  0.4879376124569971  0.7624296889084128
  0.2461148785024979  0.5040521283125802  0.7421669968217606
  0.4837856347718234  0.5270052728018948  0.7481746750677780
  0.7565825427948092  0.5008886522320573  0.7461883632720554
  0.9995318459652009  0.7583174727936233  0.7389251840301081
  0.2522825868309194  0.7602164719062379  0.7588966725479419
  0.5101490799717996  0.7507416553200039  0.7365075398291239
  0.7414427803578607  0.7555824806245529  0.7409505413803378
  0.1282504241915870  0.1202786024397616  0.1031498451709294
  0.3875644515410265  0.1250300893352234  0.1158716825437006
  0.6309343676692809  0.1245953152107601  0.1158218318861262
  0.8605926506603842  0.1399709419637029  0.1388989478430581
  0.1206234211883024  0.3590619422072101  0.1267926492917384
  0.3868080661542019  0.3805637666949536  0.1048454396823961
  0.6219099297721692  0.3713966738996435  0.1260446344461279
  0.8638873069706030  0.3835133124753123  0.1161780449530351
  0.1185730345972210  0.6232569441358473  0.1248317273199857
  0.3795813232362149  0.6236084208543982  0.1305707988588599
  0.6213529299202525  0.6261260333217785  0.1185378850550344
  0.8751336817058287  0.6546088149736560  0.1164192546464145
  0.1097665771353460  0.8893840320319120  0.1324493738758398
  0.3815543034979886  0.8720047870966824  0.1283898869386156
  0.6041692938170667  0.8836514675790316  0.1309549736444309
  0.8573910855289706  0.8836482994213408  0.1395036433319689
  0.1283814555283063  0.1214411704044410  0.3692849276881489
  0.3752606021501063  0.1241664290109874  0.3912343210846103
  0.6030743027187589  0.1292384657549562  0.3730093194888572
  0.8832817059321465  0.1353871038446559  0.3571142731058953
  0.1169836741256773  0.3707608393842297  0.3746778982113985
  0.3836546165445022  0.3735566220656472  0.3830065837989832
  0.6157630052973118  0.3801454930283694  0.3699264250325897
  0.8694194895754392  0.3804350054671550  0.3761983911612230
  0.1142333900886383  0.6362729750312347  0.3701781814948239
  0.3702756784690238  0.6285790071890867  0.3806814959964809
  0.6151952954786569  0.6322029719790331  0.3812698338371793
  0.8875427232999095  0.6198583451597240  0.3764018523917620
  0.1320128111107692  0.8661789292534834  0.3757348453639745
  0.3785071756210961  0.8738524312952183  0.3735485785363846
  0.6067291820352403  0.8927789817339952  0.3678595384961644
  0.8804195124918922  0.8697100314836193  0.3747276114639866
  0.1395022818091995  0.1216942406278845  0.6032307706812761
  0.3733272086914711  0.1289459938528610  0.6235709912760855
  0.6178667176268864  0.1310847839371821  0.6235616311899025
  0.8675189212750595  0.1190020025689968  0.6376152547531214
  0.1262478733826565  0.3766327372076845  0.6238911390466648
  0.3703451455569511  0.3749980682273975  0.6253106695724532
  0.6313301210011704  0.3659854061159639  0.6073715494470477
  0.8841945335770606  0.3772760105262447  0.6062522658993091
  0.1419317017576403  0.6287027647589658  0.6101344399925138
  0.3823037911736971  0.6075599214430211  0.6278259061199641
  0.6257138545591483  0.6119231756607680  0.6260959945971567
  0.8838572644560254  0.6170509515141145  0.6325964283800897
  0.1219841288013019  0.8695893411203124  0.6210631971361298
  0.3688985049276843  0.8854846567307306  0.6219470019873715
  0.6115296778812024  0.8879757395711340  0.6227629819112704
  0.8788937778230926  0.8804487170001957  0.6319565600675168
  0.1224996345497378  0.1303505652485511  0.8703293003052046
  0.3632388362664946  0.1156344501807579  0.8748229534962685
  0.6251181725763391  0.1190911353194798  0.8947224372185048
  0.8742133582599906  0.1303778349950721  0.8859412730154438
  0.1334490253924883  0.3795519495138488  0.8652207099967253
  0.3704503000675535  0.3743622844502311  0.8865278454534788
  0.6148708214814858  0.3836676512367756  0.8784292941039585
  0.8738732062730492  0.3749887604619573  0.8736810526348070
  0.1139451702108746  0.6158705341387507  0.8817238373163546
  0.3819969950590212  0.6312576403956547  0.8805558317362755
  0.6280971485972112  0.6219220830980361  0.8850394546664327
  0.8698677534767894  0.6289161011070183  0.8828561091836917
  0.1183363559975794  0.8748794666290635  0.8810449886390816
  0.3662448973789649  0.8837500684222603  0.8838130823865157
  0.6258962333644843  0.8972313031373890  0.8659022912251791
  0.8804613418967333  0.8825109709151473  0.8741423334073161
