generated by phonopy
   1.0
    15.9923497217343744   -0.0000000000015236   -0.0000000000010772
     7.9961748610645493   13.8497811253384029    0.0000000000003944
     7.9961748610645493    4.6165937083140518   13.0576988688087816
Na Cl
  64   64
Direct
  0.0095085546116122  0.9974983768844485  0.0001077598162788
  0.2631690411384112  0.0057989709094584  0.9837727770437483
  0.4919102846693115  0.0100657100830170  0.0031847795585341
  0.7502591509563316  0.9852579618115451  0.0074855612069165
  0.0164516621965278  0.2370001269950723  0.0057692063817728
  0.2672953357792346  0.2371319642330340  0.9984995587991837
  0.5031873229990094  0.2266338021125327  0.0142313445210930
  0.7438771471007593  0.2548600771285512  0.0137027507823066
  0.0155037464343968  0.5036509343296218  0.9824559555508812
  0.2376099054471069  0.5059931218824912  0.0173335004961296
  0.5181400928386746  0.4895749016783552  0.9829940176451302
  0.7533940080035754  0.4936586087588505  0.0067757654888291
  0.0192804539649349  0.7273194582012892  0.0062142909827844
  0.2549645135424268  0.7457497999349978  0.9954278943922120
  0.5162941066243636  0.7423754280201379  0.9961860036008490
  0.7292502006589250  0.7672080029367953  0.0101643086901197
  0.9988251870707774  0.0118838084108071  0.2515787471366225
  0.2710198287241377  0.9882363387750909  0.2361353730910830
  0.4916604162996460  0.0288191553244907  0.2352581060497020
  0.7539816095973170  0.9962508444709630  0.2557693832643913
  0.9920815911357312  0.2596035346993141  0.2390390850255050
  0.2418762728208308  0.2424472054976911  0.2449550549110846
  0.4922823279702515  0.2689069631459370  0.2408652845281618
  0.7269411320743562  0.2469377574223119  0.2614117613841975
  0.0043842197270448  0.5024939435427638  0.2557394142132877
  0.2381858629985871  0.4948588815128835  0.2653028948673923
  0.5075252619901449  0.4832104621729632  0.2542572710915514
  0.7449087698501796  0.5001375746211160  0.2448269799119467
  0.9888528498185449  0.7306393894560591  0.2590206130584881
  0.2448176773085090  0.7539870404571101  0.2548456109293106
  0.4931528794200955  0.7560143122300632  0.2383526081426041
  0.7573706233079514  0.7513684445581211  0.2551026150994647
  0.0015856173727621  0.0020983946662149  0.4904847352657075
  0.2378840939044927  0.9955656592798308  0.5014955884832007
  0.5212786255441462  0.9872491538495403  0.5049829346071126
  0.7520957613369563  0.0042331221648475  0.5045353091728537
  0.0007654250333969  0.2582352746318766  0.4972472257139166
  0.2383376398869232  0.2755193279522554  0.5056198792211517
  0.4973747471403066  0.2525429430425822  0.4915746540161953
  0.7571807611767870  0.2486336986645099  0.4923710583120283
  0.0071473814661965  0.5061897596919331  0.4913328805807897
  0.2586482203972916  0.5003740674397777  0.4878736111492468
  0.5055525143629350  0.5019203806937288  0.5022238307761828
  0.7410889722616716  0.5054263053259843  0.5232831528266508
  0.0044078123346897  0.7652223476552310  0.4993071119780132
  0.2459709304767085  0.7311919175498346  0.4969378825471414
  0.5167612811026157  0.7254268569398599  0.5050924163899595
  0.7453809171653406  0.7454603357087436  0.4934568996328336
  0.9996493304054377  0.0054964084364947  0.7421575906605089
  0.2462171984916904  0.9959916689997683  0.7540670726339666
  0.4967058710863949  0.0035590665041994  0.7411365077785946
  0.7490990057130688  0.9749281785861098  0.7590858502216330
  0.9900468113903510  0.2531669945321688  0.7444935145205366
  0.2404417632784705  0.2618373882059220  0.7635571136213739
  0.4890415059374741  0.2409872327263820  0.7637928182711528
  0.7617972025097698  0.2496911767853306  0.7381967836839490
  0.9958476148848765  0.5083553166813076  0.7365136576854127
  0.2470075698263786  0.5127238226349066  0.7362071600464601
  0.4996682657380904  0.4888486827927920  0.7620240685316546
  0.7490002088951611  0.5101934998087709  0.7505898602080692
  0.9933777635007575  0.7585013095752136  0.7656621651506808
  0.2489072705398426  0.7731798795793566  0.7335823212504807
  0.4956696727397857  0.7640119053022363  0.7438004216570643
  0.7578212976440110  0.7530515539520390  0.7460335216531170
  0.1185952276826049  0.1222357195021749  0.1263612663893427
  0.3898011484570993  0.1095861935745054  0.1215530122134611
  0.6434573466480642  0.1301104316886449  0.1170294483318593
  0.8724315492031579  0.1310787150924941  0.1182362385645783
  0.1311530334947216  0.3759928195045081  0.1026742523121189
  0.3585187553502340  0.3592398110923699  0.1382955247678328
  0.6166942853889252  0.3841686413768229  0.1196595930358425
  0.8737216505544707  0.3653203915570931  0.1323448453769395
  0.1412499596174018  0.6207692158673452  0.1140760261047781
  0.3721293823320960  0.6266212623300141  0.1220467672084985
  0.6085701051174804  0.6210867832129320  0.1376834469971941
  0.8699995728333023  0.6324556088073007  0.1214265713814926
  0.1192951670035602  0.8630438940660671  0.1203557217186023
  0.3698315797519634  0.8791220611063683  0.1191705428331969
  0.6155684415070025  0.8774667311941513  0.1244997609731171
  0.8711778566265265  0.8795398766953582  0.1289229928959726
  0.1228605931673861  0.1181646196885900  0.3709189590596619
  0.3775063803837523  0.1320111565314079  0.3661072451167928
  0.6208433194270497  0.1129911048551468  0.3840612584021721
  0.8820701155496635  0.1271505924789892  0.3700996695763570
  0.1295215967228895  0.3705176513266058  0.3871755587955364
  0.3771975983227887  0.3685656948700598  0.3676596280415758
  0.6301453453383792  0.3717038094845607  0.3807359444609936
  0.8647039763012172  0.3653146420140900  0.3795910152157329
  0.1353158382075076  0.6082948786875318  0.3798452737111565
  0.3749043758054298  0.6152913543833072  0.3736171346736541
  0.6375026903215359  0.6278432018980512  0.3672576982350944
  0.8739612880970715  0.6048770060047844  0.3934572996859778
  0.1256370152362856  0.8659683899806463  0.3852310539202475
  0.3780051126568210  0.8756169754555477  0.3758405757374837
  0.6385016402390676  0.8752429459868524  0.3551045213674489
  0.8787714833757020  0.8707557716292785  0.3757641315625765
  0.1316061832511045  0.1077687105307389  0.6231503204707378
  0.3642141349978962  0.1163761239922293  0.6256709239079615
  0.6020879918405335  0.1342608012479041  0.6307190841237853
  0.8984152812208573  0.0961620405456218  0.6184190906875504
  0.1185857022556655  0.3818742326858583  0.6263780010542996
  0.3664081225123291  0.3698683785133988  0.6356874361853639
  0.6231114278062962  0.3739544926113733  0.6186296403464276
  0.8709152711332471  0.3704608799366107  0.6233747177563942
  0.1295392668375258  0.6274165668379101  0.6204838951443598
  0.3706324042461656  0.6246555054204177  0.6130937752343980
  0.6147528316046419  0.6279907207797586  0.6410507465958445
  0.8797895609813717  0.6278747387144852  0.6255908199389298
  0.1345773682584934  0.8806292998447753  0.6216758891459310
  0.3644147925229770  0.8793807473717683  0.6251597688340930
  0.6262909834001845  0.8605943760466700  0.6287718344296516
  0.8833017611208507  0.8745220317222701  0.6237133653806243
  0.1241975149468287  0.1177614349279381  0.8786942548537658
  0.3850332263609156  0.1094966905188530  0.8823529602950677
  0.6195339398724302  0.1151397435221967  0.8889055986295659
  0.8855831269609269  0.1268791968619216  0.8738819166864262
  0.1010687256660618  0.3819420138442353  0.8836439837431219
  0.3692681843297971  0.3863612661169937  0.8602413033419957
  0.6347812595582264  0.3790209683409587  0.8782169935924383
  0.8724705725864204  0.3737381954812290  0.8753403299348558
  0.1243763838088565  0.6197853271369548  0.8651240636155987
  0.3765310051505310  0.6222214952281389  0.8671992448057153
  0.6308622616875127  0.6352518514516281  0.8606559686971075
  0.8648343746740954  0.6212021718733205  0.8794492831665756
  0.1466095004753322  0.8776442135878813  0.8677320249567009
  0.3868242785327863  0.8788017927896377  0.8630442332655265
  0.6336920237749404  0.8804147573028920  0.8753590853767599
  0.8705228204985277  0.8694565520756676  0.8868260022210223
