generated by phonopy
   1.0
    15.9923497217343744   -0.0000000000015236   -0.0000000000010772
     7.9961748610645493   13.8497811253384029    0.0000000000003944
     7.9961748610645493    4.6165937083140518   13.0576988688087816
Na Cl
  64   64
Direct
  0.9847772624658352  0.9897933444112194  0.0091625881785997
  0.2275159283588733  0.9899186082771776  0.0061926850560612
  0.4861713409268144  0.0102432303195713  0.9972359043703617
  0.7555684768624314  0.9897944163416649  0.9969929543802412
  0.9850988702746033  0.2649226642185387  0.9840816837098627
  0.2523606031772501  0.2553566508465255  0.9945641825506997
  0.5045124071274429  0.2358763372585270  0.0107099573369951
  0.7483319169110563  0.2442391072322745  0.0126061378805417
  0.9890780264405304  0.5061697144097633  0.9940787852594469
  0.2364404126892791  0.5109549505025895  0.9943365055189154
  0.5125512165187263  0.5015090198630847  0.9995093107801759
  0.7411443798187511  0.5380145025218519  0.9861154846375394
  0.0054970791289620  0.7448405520274864  0.9969151565540264
  0.2664398771204584  0.7529791615090456  0.9866779063214889
  0.5068160145651921  0.7407651052166965  0.9973834170576554
  0.7619988475580282  0.7457835701661590  0.9823242715757093
  0.0028404958504845  0.0032336506125425  0.2521755522342162
  0.2414492029300670  0.0028802332962408  0.2472710717734273
  0.4942481765011302  0.0009145350086732  0.2463450958232581
  0.7509539234370129  0.0101575668415810  0.2639287953586855
  0.0182839811359655  0.2539049654982217  0.2393582874012774
  0.2402172969726555  0.2691348694775619  0.2345468815765177
  0.4803041335548699  0.2659231772552785  0.2547070901555856
  0.7805166299642309  0.2562452141277656  0.2277413809781188
  0.0003049692504213  0.5026114201816674  0.2558221513440139
  0.2536302952718571  0.5009683107739079  0.2472773924741423
  0.5033152872040856  0.4938593960603574  0.2555593568357125
  0.7508688082840727  0.5029452232177675  0.2410940433968725
  0.9885403266987833  0.7666776426463981  0.2394776455107888
  0.2589871159083886  0.7649314754169680  0.2350733823944991
  0.5004028189231490  0.7670430007959003  0.2388259791274740
  0.7496487131495160  0.7391999090370763  0.2399319314315681
  0.0102947523742352  0.0093663601977555  0.4963237092880473
  0.2540170067900230  0.9933181579302574  0.4996847333338456
  0.4999760525233965  0.9918896447270495  0.5038828770589711
  0.7427648708925441  0.9875677416334666  0.5058863717173880
  0.9945990436356161  0.2403553891969109  0.5215720633976870
  0.2345152040417641  0.2576816226109151  0.5139539982790665
  0.5060450790172005  0.2480590197702641  0.4985387592686272
  0.7587917850511112  0.2529302800256377  0.4981929969689565
  0.9936630604423335  0.5149449255751154  0.4803288906942386
  0.2731602052893544  0.4953609694337052  0.4948838647919018
  0.5042914710306305  0.4931208240194501  0.5011003960501217
  0.7572849216359347  0.5062976020139152  0.4940029939097907
  0.0088999287345655  0.7308522993477901  0.4927367015049336
  0.2542825666367755  0.7389897392867283  0.5074497470411112
  0.4948963219803378  0.7378119966053327  0.5056085695746761
  0.7569304728555176  0.7405206989820386  0.5129239126423938
  0.9912989892681607  0.0096416637623234  0.7511338769344638
  0.2609221401572195  0.0020332305129314  0.7278348571662246
  0.5019853789518142  0.9892856091293105  0.7457193153554738
  0.7569758341308827  0.0181067966920809  0.7359376890751433
  0.9877272459125848  0.2512411929281553  0.7475458472262779
  0.2376062027914050  0.2640657136821245  0.7508833153571199
  0.4996820000059666  0.2617530194034851  0.7417076954228270
  0.7603832521125703  0.2514273045578571  0.7414951372903292
  0.0073066663833310  0.4996745184635945  0.7452939477459788
  0.2359151052568212  0.4849895703718501  0.7680920016994750
  0.5083861774221998  0.4925279428932476  0.7576816024968462
  0.7377375182174890  0.5022129147399423  0.7649266312996383
  0.0027881015261340  0.7601275473661792  0.7427999518768429
  0.2417342363260486  0.7603441780042381  0.7483379606921060
  0.5057617561780442  0.7475201891119403  0.7450953405168835
  0.7511096144256191  0.7380401492747979  0.7521650561051432
  0.1201729308545030  0.1320451499847216  0.1142591909105698
  0.3796797808457046  0.1201848841275712  0.1253898257573360
  0.6181988206604859  0.1404072430021913  0.1172070772822386
  0.8683598050293876  0.1320255968068096  0.1236477149683259
  0.1157833335796506  0.3992964880656124  0.1208357751576715
  0.3740029163568716  0.3617532777613516  0.1209049647914871
  0.6342921969382787  0.3729893601012957  0.1138345550815923
  0.8845608941429289  0.3619363019531976  0.1348625503642041
  0.1383206857192530  0.6328732451002654  0.0995344123508065
  0.3813144866687508  0.6260090680324780  0.1232466336278313
  0.6338565224672235  0.6226231652770725  0.1227988547051080
  0.8730194479121036  0.6410553572822225  0.1283400753663936
  0.1259398468987821  0.8562222523609672  0.1353880161335627
  0.3694037373042122  0.8736311145151905  0.1330181399399488
  0.6329465587937968  0.8653639261743872  0.1209099026695268
  0.8834199630935866  0.8759818536782781  0.1272996328243861
  0.1299194160340441  0.1130354885166019  0.3852712827338914
  0.3800455904567410  0.1273282238918882  0.3699260067907834
  0.6164845308745599  0.1338886614551259  0.3715459029586134
  0.8854211889234030  0.1100454537409569  0.3673684444433788
  0.1054202604890028  0.3943115439299736  0.3703429020080797
  0.3754487668304155  0.3733920204341016  0.3702387067332121
  0.6199578498491585  0.3709553774551335  0.3811816612747225
  0.8806319611979645  0.3631424734219221  0.3755164834844827
  0.1357626104974287  0.5960119989085855  0.3787476408813818
  0.3724867144453947  0.6190607498172547  0.3690684752850674
  0.6109353250004641  0.6182615663810513  0.3864082260141579
  0.8830574955664129  0.6210970402991830  0.3651955298999071
  0.1210821451528474  0.8791311011739806  0.3742360388295923
  0.3755245882684080  0.8837555454367407  0.3668026294660756
  0.6175438507221929  0.9015460680754989  0.3877241448350745
  0.8650424315203770  0.8869543617806597  0.3662407875006500
  0.1347020201320509  0.1180389710133744  0.6257199656841694
  0.3670462106846827  0.1161824793207081  0.6270235313224746
  0.6220647020173968  0.1314026544846269  0.6264459129964800
  0.8827153534644514  0.1293899844420590  0.6148614180310512
  0.1017660372986857  0.3966103855502140  0.6187268715813752
  0.3803117957880988  0.3720692735764878  0.6228693277364462
  0.6129247571378988  0.3751185789282770  0.6376595952317919
  0.8749718531630907  0.3728373860138077  0.6275974485222966
  0.1152207282357375  0.6224887448800224  0.6379737387646349
  0.3741668780809838  0.6300065092275557  0.6287682893595956
  0.6118203389174657  0.6273084898007661  0.6258991178934652
  0.8665195601052446  0.6105779223939098  0.6309669868272655
  0.1275834982401374  0.8629582730949856  0.6329364646755314
  0.3856941451175038  0.8753142657075527  0.6125489927417751
  0.6099499954518364  0.8993614577931910  0.6222181330876633
  0.8805745427639822  0.8598321699462412  0.6522112182596919
  0.1365924798269190  0.1021024791710513  0.8698851377761752
  0.3746276064463087  0.1276695238224956  0.8712508481986928
  0.6174401505087121  0.1232455486776716  0.8751218451825680
  0.8682757637669677  0.1097783176015451  0.8971642481500730
  0.1235298890409875  0.3756262518721526  0.8697346203667008
  0.3690252182008630  0.3909270393550467  0.8775530273052673
  0.6121606638088304  0.3903693806735506  0.8680538839953000
  0.8629760778611102  0.3940880805201816  0.8663524592044480
  0.1300448785498475  0.6317208408227888  0.8539945201631275
  0.3761462104529002  0.6186925883925485  0.8756927424504438
  0.6310358274772657  0.6322490071786473  0.8682092445650235
  0.8718195208624595  0.6356233963021043  0.8699010686237407
  0.1368107024255024  0.8860587957415548  0.8585916412527805
  0.3518215165587726  0.8820628098100927  0.8829355950977461
  0.6296697762026455  0.8631062371487639  0.8611440300688501
  0.8724463572435674  0.8781720167976972  0.8723014830310808
