generated by phonopy
   1.0
    15.9923497217343744   -0.0000000000015236   -0.0000000000010772
     7.9961748610645493   13.8497811253384029    0.0000000000003944
     7.9961748610645493    4.6165937083140518   13.0576988688087816
Na Cl
  64   64
Direct
  0.9978743307766857  0.9989210976594852  0.9989705885856657
  0.2476689689074800  0.9938565292991940  0.0110721193658226
  0.4988349077053007  0.0029743953353021  0.9919601246096064
  0.7463892383680510  0.0194411019500320  0.9827884458055232
  0.0106958984256214  0.2263935899090173  0.0190802791318906
  0.2559963198894564  0.2649683138951330  0.9714964704726612
  0.5031086715959441  0.2404440498972540  0.0089556748840316
  0.7439709595260698  0.2499751659694602  0.9940639139958314
  0.9892117935644622  0.5024082442777046  0.9910503836309922
  0.2463534777984075  0.5286633842615512  0.9872918282360840
  0.5044728083406986  0.4787719097071029  0.0077491488340628
  0.7541502136577646  0.4928125596519431  0.9885805379453579
  0.9945622801405855  0.7334633448988769  0.0063498852050308
  0.2388280470864055  0.7557448011992173  0.0167654117212792
  0.4790494824509332  0.7593411918454714  0.9965763236309856
  0.7710197250352979  0.7502500005461186  0.9863637525180430
  0.9997191920386197  0.0120177178816124  0.2362057872090948
  0.2523493952379156  0.0095788776097303  0.2534633659759598
  0.4964731787933562  0.9954430236620653  0.2442027868230275
  0.7649427927321253  0.9991885338002592  0.2420665657231606
  0.0123283955113885  0.2531684580445943  0.2438198336687103
  0.2699391739809170  0.2317159384390102  0.2439901573668938
  0.5033659084867377  0.2449599786396145  0.2512367130661078
  0.7450440603961042  0.2534308753289437  0.2447841714649989
  0.9914085451391159  0.5250966956158826  0.2505765129166045
  0.2616979621565850  0.5235512582937156  0.2287527181982665
  0.5117048074717672  0.5061640231886507  0.2458977185952594
  0.7426313891249240  0.5103010412692469  0.2546576811339735
  0.0031785160530534  0.7607635694437355  0.2464329893676480
  0.2509202606153186  0.7558080455051969  0.2456944194120247
  0.4997587766215046  0.7547728861733203  0.2525270309807474
  0.7353335053614762  0.7559458786330222  0.2512412118758355
  0.0105451660837247  0.9844666589878274  0.4974202851015224
  0.2517455712096632  0.0079074094294549  0.4855837606469742
  0.5032665754092669  0.0123511520859863  0.4839417261927966
  0.7249658463531564  0.9891469777664171  0.5156334793544539
  0.9952770907711355  0.2543239678163454  0.5085159030380948
  0.2444039855492599  0.2525433563727148  0.5025819849871980
  0.4958254892408783  0.2523571941776127  0.4952010592646398
  0.7670281245073911  0.2561431590996276  0.4844996824464768
  0.9929497230429372  0.5106623785041311  0.4976845363237848
  0.2471451969233907  0.4819775870080611  0.5099123068745762
  0.4996108508414044  0.5013794305142745  0.4963254281876992
  0.7449702954700979  0.4896213278141047  0.5128471273265295
  0.9895899999184334  0.7537922605341680  0.4866348565153512
  0.2466864163916867  0.7425834443347358  0.4957323889781415
  0.4997685568267686  0.7700859626856086  0.4860954444073015
  0.7498698396108401  0.7447729252929696  0.4974592201043888
  0.0155258767665889  0.0036442256738411  0.7339388869414547
  0.2436490120789873  0.9845715860784328  0.7640614835706667
  0.5083394080435846  0.9977302653777357  0.7465071063236034
  0.7555650152417367  0.9936842677535497  0.7379874470974871
  0.0121507831203478  0.2477124342373476  0.7495100474463611
  0.2692117668825373  0.2565466963676449  0.7424164800570376
  0.4848158384291664  0.2553217900092176  0.7370782282078948
  0.7381461344413317  0.2530032958016471  0.7462127376970684
  0.0051936420464829  0.5125094932961667  0.7414518101778922
  0.2504245183853673  0.5193372005342679  0.7370668803319490
  0.4927896990492012  0.5020730436075227  0.7504215249059017
  0.7392398885702989  0.5106971136267853  0.7596665073625051
  0.9955359023121891  0.7618535492477423  0.7509404589992285
  0.2609354649139118  0.7438191931800653  0.7394861655471768
  0.5142014271386262  0.7537637399400883  0.7343268601386418
  0.7502340834715868  0.7242936416393626  0.7710811947275921
  0.1318922235702095  0.1283816608384628  0.1198287048027856
  0.3924675856184613  0.1274825125628933  0.1236433924706292
  0.6227432469393026  0.1189983480555236  0.1333586469713959
  0.8717865995368548  0.1310382403711269  0.1266643847143726
  0.1005460409388103  0.3842151461845569  0.1304343613059244
  0.3887244782761530  0.3604782144649702  0.1179158288222824
  0.6419898144865449  0.3662171005443885  0.1169235121896569
  0.8781046734884932  0.3705136086908453  0.1222451901373162
  0.1278642191613856  0.6231798380555471  0.1235887344572710
  0.3735182499806652  0.6266111087052922  0.1314245930059943
  0.6328032933766438  0.6179958834335399  0.1221069583669706
  0.8920413293950346  0.6216832966105053  0.1176194334632792
  0.1387710282793647  0.8553868438474101  0.1298116660133866
  0.3797669412527119  0.8892599331787694  0.1222960059463460
  0.6225412863995139  0.8816184663358293  0.1269650550695323
  0.8647897918766753  0.8821090331982923  0.1237678453701816
  0.1331484617507799  0.1254607430069007  0.3706358992237229
  0.3585575657114594  0.1283371021443910  0.3756437928243749
  0.6329306420695696  0.1152444338691920  0.3834040356222378
  0.8760347626528132  0.1311862982910493  0.3555043445589862
  0.1147127270751548  0.3767983826533043  0.3845893043754237
  0.3657318050788133  0.3700226895567261  0.3852822448916076
  0.6285511554527268  0.3851236223478976  0.3636328712360892
  0.8764782796002935  0.3616920169907476  0.3886607554248222
  0.1222926408675392  0.6403594268072730  0.3775022502962959
  0.3840790986877335  0.6110773888231258  0.3656911983654812
  0.6300235106280169  0.6188065422345972  0.3649686910635065
  0.8636092584618498  0.6128343571034314  0.3929212015593976
  0.1179987288337303  0.8850854277434679  0.3674250605758650
  0.3800934652805666  0.8787572179123648  0.3651713323575120
  0.6255049289102964  0.8871423906793776  0.3691708383983490
  0.8590851373384527  0.8952193790528253  0.3776552032653244
  0.1246211067915014  0.1242474794812678  0.6330982027195815
  0.3730183681625296  0.1426788141473144  0.6170379660858862
  0.6181943928337288  0.1212899123433746  0.6300936431565139
  0.8704557926518581  0.1217409792438177  0.6317286730589459
  0.1342682725097802  0.3815627812326631  0.6012472546294746
  0.3798483158284922  0.3694998503786441  0.6149044107782771
  0.6202979909216826  0.3721682394518246  0.6403621220155856
  0.8728806748454749  0.3716241620550015  0.6198703401185509
  0.1194082801973740  0.6189384871141119  0.6329398448453371
  0.3775198563497467  0.6421587097697788  0.6179975000925751
  0.6163105774993096  0.6358305378075322  0.6361766821000695
  0.8663833248302406  0.6226502854873468  0.6242259651504211
  0.1232274485365012  0.8682036719284228  0.6331319861587935
  0.3828723650037248  0.8715047009802330  0.6197128934750942
  0.6180547417665211  0.8834309686210717  0.6293712066075874
  0.8632275843803559  0.8604153741840372  0.6363643328773386
  0.1217107007816588  0.1297184697810059  0.8768599006343916
  0.3859844735662301  0.1213377338622136  0.8718279340224144
  0.6062486222392705  0.1332845694915609  0.8638698323230557
  0.8782619832845283  0.1370474241146453  0.8676412773256502
  0.1252156303036422  0.3679553939712904  0.8863034909620039
  0.3736820088034059  0.3699031677164789  0.8669138076103059
  0.6154574395596428  0.3771644629243480  0.8837827156348123
  0.8773203255073052  0.3575955461716899  0.8792418825889192
  0.1231747858863231  0.6258873687760939  0.8753334296582673
  0.3774517673331988  0.6160550456811994  0.8673435855882208
  0.6240770314840576  0.6297307080926777  0.8638162528657393
  0.8702380700996573  0.6249553653974826  0.8832766219358611
  0.1330905222083064  0.8673658261537003  0.8760396711055513
  0.3584084176081210  0.8769847026541030  0.8810281037665439
  0.6163190850045701  0.8819001569930927  0.8815299163355067
  0.8863206638261971  0.8620342845518904  0.8708601869562747
