generated by phonopy
   1.0
    15.9923497217343744   -0.0000000000015236   -0.0000000000010772
     7.9961748610645493   13.8497811253384029    0.0000000000003944
     7.9961748610645493    4.6165937083140518   13.0576988688087816
Na Cl
  64   64
Direct
  0.9963107068866141  0.9938007009174815  0.0162733562258641
  0.2452818036911344  0.9963185503230200  0.0138431510765134
  0.4958111698968925  0.9712507255406592  0.0284223757813550
  0.7176998663601871  0.0252249496443243  0.9929892893154768
  0.9888616351900854  0.2508310467743978  0.0058109478271077
  0.2414880444750429  0.2552102317451330  0.0099752257342208
  0.4912845673449169  0.2502788443501842  0.9995199814025254
  0.7404010683602252  0.2587874188856358  0.9855725371594496
  0.9954643821360007  0.4891900926630111  0.0099253277177528
  0.2277740552812352  0.5078273850980810  0.0009548414819587
  0.4930743823079518  0.5057096449472196  0.0138120939120030
  0.7546878766421597  0.5161519034559656  0.9845155277056789
  0.9932200108542903  0.7505541121679041  0.0129651536810926
  0.2684798908278597  0.7420493330740422  0.0092094854670140
  0.5106738562021618  0.7403444476120705  0.0033764084829840
  0.7591748404837226  0.7450048665134420  0.0020672645517013
  0.0103000465070764  0.9903722185268971  0.2391918077618366
  0.2537467147311465  0.9974755953905157  0.2576710214926445
  0.5042139689716391  0.9927929624708107  0.2486802423982911
  0.7344998999532104  0.9940093108571342  0.2604514896058083
  0.9773927389649223  0.2701676829326946  0.2539357526946360
  0.2396233839412972  0.2544840512957994  0.2346726713663255
  0.5077797439225125  0.2491390724743936  0.2671236047323556
  0.7585471098131682  0.2335865241847586  0.2624598856245651
  0.0030790232438743  0.5008670893822588  0.2543192245144454
  0.2557596576238172  0.5054520446126513  0.2633845115609320
  0.5039472572315029  0.5085685306165575  0.2371114125285572
  0.7647293481789307  0.5092024123585838  0.2365210719201313
  0.0113026653774797  0.7454632198523699  0.2509633959676640
  0.2411215422293828  0.7387229822039316  0.2678659799466608
  0.4956966098571796  0.7483995016758545  0.2527118593390512
  0.7300899602384375  0.7646104397973869  0.2485907136881963
  0.9762980475602425  0.9939357164615334  0.5200488461345588
  0.2729081472233509  0.0113456481268416  0.4653731091388514
  0.5010984043408990  0.0033690488440780  0.5172962056516205
  0.7514210128144838  0.9943282884968840  0.5022597322421199
  0.0089779749640627  0.2595350300304077  0.5096964883959813
  0.2518382282043319  0.2501530883534381  0.5122666670388939
  0.4897242812468775  0.2596128002691557  0.4952819628073046
  0.7539318280217738  0.2400816522010574  0.4902994318919814
  0.9932450644252595  0.5046617694417438  0.5017322749741666
  0.2451182679337216  0.5107840651661688  0.4979697270247047
  0.4971255438978924  0.5234462703379421  0.4818506712140209
  0.7369534043202403  0.4936061087749080  0.5005029203320300
  0.0047103013010367  0.7637525807157745  0.5021196727322510
  0.2501043713168088  0.7441588094088250  0.5101987289067654
  0.5092125553049354  0.7468356468197734  0.5075893045752227
  0.7550797931631058  0.7421713151581985  0.5069542029639604
  0.9990777977930337  0.9916476476442440  0.7456054557277855
  0.2537859186680602  0.0075494104462293  0.7500359803142180
  0.4802697277152513  0.0085384596057557  0.7487384423434609
  0.7539564352223825  0.0125923946249218  0.7431347855409053
  0.9978194764917929  0.2504346494432931  0.7555192392869422
  0.2643645389601340  0.2323384184617847  0.7407391210024994
  0.4986722512315538  0.2471640713884125  0.7625023614180683
  0.7563855796827785  0.2531179031527970  0.7443454129852991
  0.9933713463669203  0.5069094855249958  0.7356964417228832
  0.2629431384190150  0.4869093187852954  0.7567033046677274
  0.4995856862973541  0.5122780454703568  0.7395127766814472
  0.7626680458616018  0.5105811135149002  0.7428547107418235
  0.0035640576875738  0.7453086999908909  0.7779466140281719
  0.2592304599697342  0.7566734984491945  0.7537171842618944
  0.4867554405951330  0.7551624465418285  0.7674191984136766
  0.7500639253168939  0.7381729564569850  0.7567308395857449
  0.1065954179721299  0.1211295453133022  0.1402002059477359
  0.3716873254198363  0.1282063736986096  0.1381639400751642
  0.6446879470434929  0.1314283748756412  0.1049465138349100
  0.8749801895415807  0.1358204279576987  0.1081295154378193
  0.1219160112290554  0.3670880880524653  0.1363129433409726
  0.3935419764342988  0.3759185117710416  0.1240475492863541
  0.6239338351586470  0.3681387627227375  0.1223324138101064
  0.8720611120586591  0.3625673019905620  0.1281839941426442
  0.1319571672176672  0.6220701691367643  0.1348580118985319
  0.3716670165707240  0.6132312412867494  0.1385100171973691
  0.6293723087698535  0.6229254943418094  0.1250631145672484
  0.8682374502824434  0.6301235706435950  0.1334002440576915
  0.1134406951720216  0.8929390887739301  0.1153629099289394
  0.3660758329123339  0.8632631993876745  0.1427209978220113
  0.6249788750532712  0.8820569790459766  0.1229647075524253
  0.8716330369750273  0.8679555994473348  0.1371510017820106
  0.1279259476329757  0.1224432362752850  0.3809410923528991
  0.3765650031594452  0.1111616751653712  0.3751371635205730
  0.6104493517937037  0.1259470471283676  0.3947897028258843
  0.8721820772475284  0.1031690056312658  0.3894856378224490
  0.1292123226905868  0.3755481690974621  0.3777427744268768
  0.3721322328280763  0.3765463785518036  0.3682994050598919
  0.6189505743814154  0.3728618829131116  0.3919904862961947
  0.8870799743988036  0.3719731922381084  0.3702026078434484
  0.1179995035619690  0.6272449729802778  0.3796781487354460
  0.3849688823372869  0.6090369324898199  0.3703085086091273
  0.6152602832245350  0.6284403033084898  0.3735202837363357
  0.8626204083905130  0.6272624363431019  0.3846727108071599
  0.1400324001329299  0.8871939364161644  0.3527520099118026
  0.3832401247898628  0.8712072320489070  0.3766835224153101
  0.6101078356450096  0.8902130207890083  0.3668780624857793
  0.8743126772764680  0.8757049779496155  0.3802032550336750
  0.1133330646034074  0.1360659307001653  0.6252762664378200
  0.3718601944113637  0.1307101483980606  0.6221061835069766
  0.6229834106329347  0.1204030995037454  0.6380817387275994
  0.8799823581022009  0.1325416128352736  0.6185339525549834
  0.1410505951360226  0.3533335329114702  0.6272644652786752
  0.3721011658341383  0.3632191559772466  0.6309127534748437
  0.6329242878479806  0.3689511704437584  0.6234971008440032
  0.8669064001451842  0.3642070564239950  0.6357333298075555
  0.1303171023766992  0.6179896159038533  0.6239743131059925
  0.3704395636571982  0.6269775743952201  0.6196924241618532
  0.6345869926809837  0.6110883564972354  0.6189124311496098
  0.8806782859129958  0.6273434325382796  0.6298298272937305
  0.1210774661786501  0.8643216722750722  0.6187079959234840
  0.3693063165318151  0.8637913376862091  0.6429340706258755
  0.6147681981870187  0.8817380743551568  0.6191133036174149
  0.8758873868918934  0.8634682217690075  0.6135112570172887
  0.1366299570468711  0.1114515185563663  0.8900823199580928
  0.3674738430392911  0.1228930492198323  0.8795536630270183
  0.6254391844184929  0.1382771646692350  0.8698753156554700
  0.8775631032714908  0.1265395948731680  0.8528601730632474
  0.1209194802653409  0.3849768460293850  0.8817676802413338
  0.3954055145438622  0.3653059420132700  0.8760905695073544
  0.6202513101530366  0.3733555439805534  0.8743802817560676
  0.8609735081953006  0.3712020086263835  0.8803259488070452
  0.1205136025104198  0.6284224446219848  0.8785627546082824
  0.3738089680057785  0.6332644923208142  0.8730922795772746
  0.6123863780187027  0.6322653759143612  0.8893505280303416
  0.8908439443748246  0.6244421736175011  0.8682624559923754
  0.1206647421805755  0.8756737272734435  0.8863609093427610
  0.3805084808093558  0.8840378185953333  0.8555774119162985
  0.6132147092284093  0.8695405842867389  0.8796164004393311
  0.8692241637268932  0.8614741414537264  0.8688944844107636
