generated by phonopy
   1.0
    15.9923497217343744   -0.0000000000015236   -0.0000000000010772
     7.9961748610645493   13.8497811253384029    0.0000000000003944
     7.9961748610645493    4.6165937083140518   13.0576988688087816
Na Cl
  64   64
Direct
  0.0058520055977479  0.9903292946354443  0.9922277816781877
  0.2548601842171086  0.0093460445407578  0.9817143791613087
  0.5003472451783080  0.0073284994792181  0.9887038947432581
  0.7561805278131126  0.0073033794882953  0.9998102056621443
  0.0174476857189909  0.2400422688559175  0.0035049385269268
  0.2688133857099808  0.2359383051137461  0.0064979234048818
  0.4943577724149781  0.2410619667299568  0.0044905960995025
  0.7631924337137227  0.2453803811042621  0.0085966122951749
  0.9894633906998243  0.5096385288585565  0.0091100266522293
  0.2601849773202338  0.5138433684883743  0.9733989491786537
  0.5023926939635439  0.5106521158712117  0.9872460418846438
  0.7705275465180932  0.4830983898306777  0.9886456992201537
  0.9981018336061438  0.7401851851987513  0.0107203009761316
  0.2461979690885938  0.7453401553742307  0.9982100921035746
  0.4940132981361603  0.7555358525308513  0.0269027304059698
  0.7462451392385092  0.7553833229657474  0.9820450332602404
  0.0041315900361715  0.0002296226323177  0.2571075202541280
  0.2407881704761742  0.0086041067252507  0.2504444921868809
  0.4957184999223658  0.9862293031216361  0.2553151019083261
  0.7393834498148014  0.9936927454862577  0.2570610463428248
  0.0053624838904750  0.2417030103181840  0.2566385000111178
  0.2430701471014624  0.2378018250151809  0.2527084358044737
  0.4872244665336736  0.2747303852515757  0.2459374723934777
  0.7463693536636528  0.2474260496019265  0.2623472250898614
  0.0132518461313465  0.4879674157445669  0.2598072557160631
  0.2397179092313199  0.5113087230581381  0.2559307310254984
  0.5010629811154762  0.4909454496403577  0.2585968131425359
  0.7556400311085724  0.4871343632716346  0.2545424492395107
  0.9842551879814028  0.7838302729055312  0.2463263904862078
  0.2570369051146880  0.7503377692451391  0.2330872290798957
  0.4957496103401279  0.7501221114087413  0.2589945165955811
  0.7333140196585421  0.7581284067217026  0.2454757362908703
  0.0149796652040236  0.0050021957448391  0.4844766694470459
  0.2492162432516856  0.0065488590327993  0.4967464832848043
  0.4980287584274677  0.9928181304150265  0.4992977212939906
  0.7600207267024243  0.9990435751867386  0.5021507675556421
  0.0066400827314693  0.2481080222187384  0.4929897121220012
  0.2655506700933307  0.2391591411872977  0.4887376142764931
  0.4977375846873401  0.2469389974875659  0.5048059892224660
  0.7351054938705421  0.2429842785089177  0.5064411920133931
  0.0077781385871025  0.4981124332388820  0.4940547828585250
  0.2692203061730234  0.4895529511556345  0.4891971347816401
  0.5212716331584839  0.4926295677391445  0.4924952647170949
  0.7502514393275859  0.4938734452792929  0.4974801664301129
  0.0120289760148709  0.7487888576097516  0.4936711912150083
  0.2471795435844036  0.7452030598962396  0.4929063884256830
  0.4875088480635502  0.7477011661560498  0.5039051000777968
  0.7561965267910472  0.7638430465076518  0.4692154036189375
  0.9991085300890048  0.9985840717977066  0.7675993550737559
  0.2438101437689975  0.0133610944081334  0.7636490971484057
  0.4968757818525769  0.9997534526970230  0.7544586633660242
  0.7617327200468840  0.0099434101739737  0.7393165579383100
  0.9816164910447227  0.2481580845915900  0.7508928319273621
  0.2661773815627472  0.2478467424612719  0.7419857469129759
  0.4951603232295019  0.2533873932875137  0.7513233828395320
  0.7445588446983925  0.2551243398953483  0.7481029050874252
  0.0085789545323840  0.4858110118236887  0.7425052597262933
  0.2436636553112931  0.4970564501448902  0.7507063545665709
  0.4992307774767177  0.4843899756359406  0.7726607656522224
  0.7677045125105274  0.4810550002363939  0.7460141450179982
  0.0008611830149623  0.7665392986446646  0.7238807340703360
  0.2326993762819293  0.7604751562900458  0.7413133932513826
  0.5008865360675103  0.7424861350065339  0.7488215533526948
  0.7574040473290031  0.7512671552147405  0.7334037222986367
  0.1247734103246938  0.1228419500648973  0.1121129200249496
  0.3566314865616650  0.1210237579257523  0.1309160429209820
  0.6223089639162875  0.1436309939444954  0.1227903078510333
  0.8953729352691010  0.1231241646248582  0.1062851466665718
  0.1175384202911301  0.3720061142872869  0.1347209278681517
  0.3740163993608332  0.3832579111404864  0.1148374373125123
  0.6243864002525723  0.3807542280385550  0.1375377002831566
  0.8708261717216101  0.3817822353278069  0.1276202572508303
  0.1209180202118468  0.6361137233487386  0.1248115186233156
  0.3767304626606177  0.6350122954826791  0.1079605525946320
  0.6385335269755155  0.6329137126785570  0.1152249802855222
  0.8794452839376405  0.6125573333493091  0.1268513131258465
  0.1326988619970003  0.8720908008106223  0.1369364134935078
  0.3750781037336856  0.8722113781601606  0.1187107507276409
  0.6312751937981758  0.8779498421810024  0.1240664437023633
  0.8734457845564790  0.8749126456041261  0.1220906329570417
  0.1250550759749184  0.1244889658250459  0.3932587152804459
  0.3919672198236105  0.1264415944189487  0.3674493117536370
  0.6247552557549032  0.1131317692715350  0.3879358219780106
  0.8874263350277996  0.1036282232268743  0.3680261333946062
  0.1216388482453760  0.3655715219513773  0.3972582469977928
  0.3913067279303253  0.3623173145111072  0.3736987828350919
  0.6227199475688820  0.3778470080747852  0.3757020778586473
  0.8675333885286645  0.3821420699984246  0.3864709611441147
  0.1357095978844819  0.6323063542349471  0.3590707706228098
  0.3802569552734096  0.6366356601433842  0.3758861926952867
  0.6271184836070139  0.6204677849263894  0.3665724207304730
  0.8592318707639294  0.6366117896653605  0.3808023633141536
  0.1249831245900069  0.8595767283018693  0.3971831894257134
  0.3775886117856262  0.8779965270742117  0.3636409861542164
  0.6341040635112967  0.8610009765099580  0.3773136225278490
  0.8970728227466271  0.8582607759584776  0.3806898134737401
  0.1340331182863153  0.1325476876803098  0.6163438096443398
  0.3830821694362169  0.1258008642687960  0.6306484115289129
  0.6239840635313371  0.1140104648260578  0.6307861049484466
  0.8831651628675394  0.1183781860282430  0.6040816285769213
  0.1131225799139425  0.3931425723408931  0.6262780870520654
  0.3967922214322812  0.3841754590846671  0.6042237646031592
  0.6099057098108484  0.3821001034128954  0.6377700053630980
  0.8788739884554589  0.3709693963225198  0.6308806972088263
  0.1207548659291526  0.6226225644358709  0.6328357545588608
  0.3854006121953660  0.6182032464077700  0.6299971411344305
  0.6276551688427704  0.6154819328239955  0.6320807019960144
  0.8860940911745231  0.6206417541162175  0.6351729987620591
  0.1176125684850556  0.8669845069399458  0.6316573077689079
  0.3845257056127716  0.8866734901221578  0.6199181355142005
  0.6272930322657331  0.8796175494904991  0.6227763646505832
  0.8918313887127998  0.8697828976382938  0.6110828583530181
  0.1235337794407864  0.1265162658169650  0.8701597737199902
  0.3702313173498531  0.1232835331756495  0.8700758446286413
  0.6292179444614723  0.1167325029454622  0.8700711481097909
  0.8752220596321845  0.1400378155225687  0.8646687049873195
  0.1411001894090604  0.3656661833503480  0.8669069479881920
  0.3653743071526677  0.3793725432180078  0.8719125050264944
  0.6341721023814876  0.3749595415598432  0.8824245640913473
  0.8681808587047508  0.3634161163782830  0.8825228064101749
  0.1203176236053157  0.6300069589122144  0.8738075881845628
  0.3730116000244690  0.6339853621062799  0.8762215714859064
  0.6068507059899778  0.6156066155283580  0.8890091365857957
  0.8912469162183470  0.6303225930645971  0.8698169033085080
  0.1232923384954996  0.8772556295909246  0.8783897151912967
  0.3891527107329806  0.8820505736600359  0.8785345589480916
  0.6120410390959430  0.8833501676623154  0.8876499865114105
  0.8705381628673722  0.8814916061453980  0.8740290253253125
