generated by phonopy
   1.0
    15.9923497217343744   -0.0000000000015236   -0.0000000000010772
     7.9961748610645493   13.8497811253384029    0.0000000000003944
     7.9961748610645493    4.6165937083140518   13.0576988688087816
Na Cl
  64   64
Direct
  0.0129064339893747  0.0030681048317219  0.0074548036016826
  0.2526574669049377  0.0171818442269356  0.9900290251545453
  0.4969959358595429  0.9973228437647310  0.0106418244341866
  0.7550261755813286  0.9985403286027064  0.9943664819876789
  0.9776077500467407  0.2620721896645624  0.0073750386695554
  0.2417350673440805  0.2534310598593431  0.0006077693236953
  0.5276352095758211  0.2479690110146298  0.9808757900724133
  0.7687140634572561  0.2625034509194958  0.9882896424946545
  0.9921523956087391  0.5089175536720695  0.0104202932175589
  0.2696276935175496  0.4937941767837235  0.9799749999249526
  0.5015321000309008  0.4893753315403666  0.0043116870324839
  0.7585969420199109  0.4862881465079318  0.0143383938826227
  0.9811671052204269  0.7466349396789024  0.0083813455762332
  0.2541317571335817  0.7515101991395835  0.0048159020668359
  0.4911235723341745  0.7394364487494925  0.0243777389959471
  0.7555574227956309  0.7446273205004037  0.0164815185399662
  0.0063898365808614  0.9835585898512430  0.2413182295645654
  0.2407476498641754  0.0108393003653923  0.2402992869623493
  0.4878666636131678  0.0083045474877978  0.2734076781910206
  0.7526989863441959  0.9914391472667463  0.2504481355052475
  0.0070050965803820  0.2347219734613937  0.2539243275038703
  0.2428207321953937  0.2426627959216562  0.2670999640849180
  0.5082654022706929  0.2419303565458907  0.2522696067143734
  0.7650469955891983  0.2265687783998348  0.2560496509225899
  0.0104890151733042  0.4969253975361584  0.2470444477638234
  0.2685324684363528  0.5010295344853287  0.2540575654784463
  0.4867589824206024  0.5061483564816659  0.2415637734527175
  0.7460178655528814  0.5147370351405557  0.2532600448250451
  0.0018109191321882  0.7622695788361322  0.2669049972142571
  0.2484966978912290  0.7461300243490373  0.2452137905338507
  0.5153671342928545  0.7689923467519326  0.2363831514061369
  0.7575661671287635  0.7411633898511657  0.2629316589599648
  0.9760942807371461  0.0073923476395254  0.5070653040786597
  0.2688974510976881  0.9969378329430150  0.4842621028409286
  0.5155152283887987  0.0060432012677819  0.4878913404936465
  0.7449850441218419  0.0006106386814325  0.5033770141633080
  0.0062651235473575  0.2474178249987995  0.5142510298449140
  0.2316187066665016  0.2589255705524172  0.4987969093243304
  0.5052529223811155  0.2410896279156175  0.4827110294181211
  0.7532902991439715  0.2622882048060647  0.4846462736323764
  0.0012546651657131  0.4795146264612861  0.5268059836011639
  0.2489683407064736  0.4822879497033840  0.5034171028973293
  0.5051583646686886  0.4888696941233035  0.4974721499386055
  0.7707502430053423  0.4962096466520635  0.4768152988983768
  0.9925701168557337  0.7529114813545471  0.5048234475370440
  0.2656001608206727  0.7404852870719500  0.4959633797061027
  0.4828199828023989  0.7543914953805162  0.5067759012890320
  0.7403458593324839  0.7526707207606415  0.5034538927704881
  0.0116431324681600  0.9940011163807291  0.7496730957056240
  0.2422651996688090  0.0016892866275359  0.7456100218670274
  0.4996518438036373  0.9944192933679008  0.7388224197926920
  0.7522725903944807  0.0105891828870226  0.7334672003355960
  0.9977922324806586  0.2502585288241681  0.7592343135103580
  0.2520035167400016  0.2328205082916366  0.7566594868486677
  0.5122909266843737  0.2466510231110873  0.7407965850303840
  0.7718548881500222  0.2391975398742877  0.7462162528111992
  0.0044242622662555  0.4930880483040020  0.7544002016631048
  0.2632310959538329  0.4894794124447586  0.7614491555112137
  0.4913884191715434  0.4971617553878351  0.7479994691239951
  0.7494052910400524  0.5178463469053661  0.7409665110279644
  0.9927092791649519  0.7425116265293692  0.7429902051109792
  0.2585485877350901  0.7506715146507470  0.7540311369326844
  0.4931878189680591  0.7508840698289663  0.7455178206602556
  0.7474007112341101  0.7604320644992660  0.7660001456136094
  0.1169029468888459  0.1300077114130764  0.1342514443067947
  0.3865668451301871  0.1150465342697864  0.1236977389423398
  0.6217946601824039  0.1146749844638436  0.1200457403479226
  0.8800598027706198  0.1059609267956881  0.1226254451184461
  0.1298597513977631  0.3687883015439148  0.1280336073980752
  0.3781202890152136  0.3659029763335879  0.1367037318247614
  0.6167015835883726  0.3921052653118839  0.1245881551737764
  0.8712821808432010  0.3868235277157269  0.1242449220459373
  0.1362524963247275  0.6043175769680551  0.1351219127790924
  0.3871393371430421  0.6264631315128123  0.1248212890878763
  0.6236603050011655  0.6025792325885521  0.1476036588131115
  0.8701855746586742  0.6025135027098640  0.1321801231519155
  0.1184540507993790  0.8808155900711890  0.1308384981510323
  0.3756595660614813  0.8859732812823203  0.1173354187464852
  0.6081126339300871  0.8602030549430220  0.1382580690171971
  0.8591018461096011  0.8783901218586123  0.1283348912791586
  0.1465726393534631  0.1258691067609587  0.3693922418030204
  0.3715313049044618  0.1282185444745865  0.3778578399946191
  0.6354278413115693  0.1287494443702732  0.3806206751929434
  0.8626260313621898  0.1454334909236303  0.3578522547841583
  0.1336795096355383  0.3701187947236942  0.3653832845243914
  0.3770351223127199  0.3757542054085953  0.3625304109372651
  0.6430374179466966  0.3767909683269751  0.3571160407909167
  0.8674249559054686  0.3709033131940958  0.3835714464630821
  0.1467348454773772  0.6157707605676038  0.3745949177600868
  0.3810835306614569  0.6143719029388575  0.3706293899433128
  0.6144516314754698  0.6183854866161236  0.3742071935537137
  0.8798778537870203  0.6047520881209326  0.3812734262661314
  0.1315327402095799  0.8667080824766356  0.3762000568534438
  0.3856496915833152  0.8874760526715069  0.3573916592891563
  0.6333896771082936  0.8690182610420298  0.3805109166743850
  0.8863002829900741  0.8683743558146533  0.3802547358642981
  0.1279178543532334  0.1095101533393322  0.6346813677849305
  0.3713286114067584  0.1288321383787757  0.6125153188556682
  0.6296994546063013  0.1273447755363621  0.6199789209412152
  0.8758427015322455  0.1159770656822999  0.6177078907496947
  0.1293059617333929  0.3680870133260296  0.6420510269404882
  0.3898483992671768  0.3716160420438831  0.6182494665315990
  0.6266627848265409  0.3918957737860097  0.5978975748221165
  0.8798481454541696  0.3877629960922442  0.6219839830078798
  0.1234664536524304  0.6300337374703625  0.6225701571747253
  0.3872362508488391  0.6233583391029568  0.6087430835871785
  0.6049743312472396  0.6377961250750490  0.6280306862671944
  0.8743959457813864  0.6195295675252914  0.6311005366287825
  0.1337970935462046  0.8693808098605309  0.6197074979845998
  0.3563397006037396  0.8887699079660942  0.6193708915002125
  0.6360050223551188  0.8829351035827595  0.6212917919604748
  0.8759645600661474  0.8811762347413502  0.6254232014036527
  0.1302141916333341  0.1183322968883272  0.8742887047024446
  0.3573116178055074  0.1252762975424508  0.8746710212576383
  0.6266076223922461  0.1375374810599786  0.8694680582585963
  0.8781006284046353  0.1175142843502957  0.8695054341267590
  0.1183573522819401  0.3928562467554147  0.8863553712049919
  0.3934071595839835  0.3725659711014251  0.8629040897364140
  0.6138770557295117  0.3889838270937275  0.8776495889539122
  0.8715196096573722  0.3802820911752847  0.8760375468736684
  0.1220771457645378  0.6278465044370729  0.8693528340670843
  0.3849392055483083  0.6239613902123967  0.8690908458011767
  0.6427952804781641  0.6020256519965578  0.8739625681713599
  0.8819197511070243  0.6175395093457290  0.8708337273134072
  0.1249743845600138  0.8770821207501249  0.8677082216913700
  0.3725337449441278  0.8720288370244966  0.8758636312458018
  0.6349330488650076  0.8654917326705176  0.8782998930557632
  0.8649032885675809  0.8793053622194040  0.8754313781237104
