generated by phonopy
   1.0
    15.9923497217343744   -0.0000000000015236   -0.0000000000010772
     7.9961748610645493   13.8497811253384029    0.0000000000003944
     7.9961748610645493    4.6165937083140518   13.0576988688087816
Na Cl
  64   64
Direct
  0.9901737150544850  0.9905129029770821  0.0163508582016319
  0.2354063037532252  0.0049021616923195  0.0130205738588343
  0.4979512494723126  0.0029776308412196  0.0112365357550908
  0.7670782048405995  0.9947890039574205  0.9747679293619904
  0.0068200887611699  0.2556980504350807  0.0010221571585355
  0.2440467979207349  0.2505964763638180  0.0057838488391590
  0.5211966210860199  0.2401365896825850  0.9933868541153777
  0.7401906989647175  0.2446597112366101  0.0052874774078186
  0.0036119260584288  0.5041048667828486  0.9957220461948882
  0.2403809086642466  0.4771042310855909  0.0230305849867223
  0.5130150592819276  0.4733652704646490  0.0138532733270834
  0.7529391663205388  0.4883681843330937  0.0129726283982549
  0.9960790422835277  0.7387694873802423  0.0149121645836927
  0.2544601160139343  0.7532022491330193  0.0086912650379978
  0.4797040046932107  0.7620224317834408  0.0011999314664870
  0.7550903840107468  0.7343591193180212  0.0052014673780374
  0.9993208603797937  0.0031563913180517  0.2552940249176988
  0.2456050866764025  0.0207324318477367  0.2547678188089865
  0.5092816847929496  0.9813331576887929  0.2439680761394563
  0.7628129221886834  0.0026422160565173  0.2300783929515524
  0.0070086176015800  0.2515131774950596  0.2595986049776943
  0.2426777881339905  0.2343950235248844  0.2539020733879365
  0.5218303517898366  0.2439920688873767  0.2386490896605635
  0.7459234608504178  0.2316248770449489  0.2659915468359293
  0.9879224709329681  0.5166390838670155  0.2513523991494911
  0.2600460850967936  0.4887543260746309  0.2420031846863469
  0.4941619402030095  0.4982681297779204  0.2571954856927428
  0.7471957651834581  0.4810793562884493  0.2589713638018225
  0.9940340151349278  0.7601986185789180  0.2425516543257092
  0.2470331557589773  0.7377206207535095  0.2500930332683216
  0.5013913146870231  0.7542949947470642  0.2368303768574365
  0.7763914418319151  0.7421394412033026  0.2463101612205473
  0.9832308796732367  0.0077819061344685  0.5168963995777531
  0.2637656379019655  0.9863372819702343  0.5011987975633090
  0.5051341415991062  0.9938977351798095  0.5089169746785771
  0.7411918636108327  0.9991482789408143  0.5035101519994970
  0.0075188651772585  0.2583446668461903  0.4871692782511667
  0.2489320326197356  0.2461444411073787  0.5156383076793883
  0.5016706006954773  0.2489130163578096  0.5039163041652923
  0.7305557123098786  0.2540188335119016  0.5054187756647602
  0.0123555087786006  0.4686834313920641  0.5173687686081733
  0.2480518891916612  0.5071837905335952  0.4893704865961540
  0.4900640330690442  0.4951455189642859  0.4988710523134136
  0.7349588733492425  0.4978689940673048  0.4989898118749653
  0.0035011345322424  0.7596452956987065  0.4942474234374398
  0.2578875729177980  0.7435162990207637  0.4955841313867858
  0.5024247479186418  0.7342491517320768  0.5020013207139614
  0.7637266163709393  0.7524643416535552  0.4886469693514808
  0.9999155690811126  0.9974464548426800  0.7551200112198312
  0.2454745415406839  0.0089004638323831  0.7535708561175655
  0.4807060178160725  0.0215155364115772  0.7497349109746305
  0.7464592117651854  0.0167113483659370  0.7447891858019765
  0.0121472318146600  0.2576318122964805  0.7354386313103386
  0.2609152763049945  0.2441721929617064  0.7573758917002575
  0.4997750645109887  0.2351388825726725  0.7602716501932690
  0.7573877357143672  0.2578820292267653  0.7354712302065863
  0.9722123988367544  0.4981466385744970  0.7550154307973189
  0.2576595037324290  0.4965590100176502  0.7559938815443190
  0.5000402127284298  0.5028518656675895  0.7544039709746740
  0.7599984713517952  0.4954896507632827  0.7516229198621007
  0.9916227243255969  0.7595613096899139  0.7545737708720650
  0.2775916149193796  0.7417358118249529  0.7266608929242140
  0.4997039124657513  0.7548461012100922  0.7364622384784136
  0.7546356190267440  0.7451415008561194  0.7410621731429008
  0.1427486044028945  0.1357258929128842  0.1132535401813552
  0.3826412831798065  0.1269651249563511  0.1153695892449024
  0.6173134228324997  0.1173995251440299  0.1322574613686124
  0.8807961975305664  0.1410857683489957  0.1102293255356877
  0.1352476061625096  0.3666542923151039  0.1251773343837619
  0.3680998260673569  0.3683676559766526  0.1358750527272869
  0.6383960378052386  0.3609405245289016  0.1316425557584149
  0.8566107550615683  0.3922907826649560  0.1398458701189514
  0.1321843168703445  0.6161698284560845  0.1351556003593355
  0.3671918979723904  0.6187432226964339  0.1342970686109329
  0.6391637964306092  0.6197173483350776  0.1128436848923262
  0.8722500441039818  0.6390290718713346  0.1149106621524146
  0.1208658095478029  0.8797222045175850  0.1308888577740802
  0.3690468049154582  0.8858510180858735  0.1125854716438761
  0.6333249519327087  0.8640638678584390  0.1248246089000549
  0.8947567868120772  0.8820936426037735  0.1049193492292148
  0.1178228107913731  0.1094216939056562  0.3954752542132723
  0.3727821278978816  0.1260638120799854  0.3721451901187760
  0.6324842071232227  0.1420497921301901  0.3569292550267166
  0.8759788444756313  0.1266083705459763  0.3680205553155994
  0.1262254632308174  0.3814720581059194  0.3647087489300961
  0.3891722573346832  0.3660095904510855  0.3581069189684306
  0.6389690984535356  0.3707642504276756  0.3693223697446470
  0.8699052363669199  0.3825466626476915  0.3865860660825055
  0.1222631526698015  0.6290714850408455  0.3671375304596513
  0.3688041952119778  0.6252204299245233  0.3756007732594625
  0.6400029834956342  0.6087674473531512  0.3540969911177501
  0.8694476189718039  0.6331474564072295  0.3683851663128281
  0.1378540849303382  0.8722224657561077  0.3718454899077286
  0.3626291876392984  0.8701189558244357  0.3842562235610650
  0.6374306332536063  0.8780866972953731  0.3674698033198510
  0.8775381340019895  0.8814668851960383  0.3693020162609927
  0.1237520853764508  0.1191895367151383  0.6266974580554548
  0.3754748880326734  0.1250072733423276  0.6067705958814295
  0.6337757398201275  0.1248738574634675  0.6122251412060484
  0.8951611685677979  0.1093477629303979  0.6195403770030163
  0.1246313092865710  0.3641104223698782  0.6424474129033104
  0.3837964643981340  0.3805403430441184  0.6197354796738807
  0.6150652784231065  0.3794608106673443  0.6169499749707611
  0.8546902414775410  0.3898375500167495  0.6254948506687493
  0.1134497377338967  0.6219255047950117  0.6337098263012985
  0.3804384510757546  0.6190443696274236  0.6184165863720047
  0.6203344689707813  0.6321510927213178  0.6141918796560610
  0.8773816692610601  0.6207267600836482  0.6235378349142909
  0.1481851473474522  0.8710376516838136  0.6154105210243139
  0.3733855837013209  0.8728763825079138  0.6214973817736349
  0.6167277575098917  0.8664533820889301  0.6328902874705584
  0.8749576046299560  0.8689821289279084  0.6282449710023008
  0.1355152611171695  0.1111528290247943  0.8871897584757870
  0.3839164947759142  0.1049687430305974  0.8802590820414447
  0.6160229496105850  0.1270145406866058  0.8799950213959360
  0.8767016625035859  0.1340015666148164  0.8683840759170657
  0.1209162974351422  0.3674343537229962  0.8707763063649977
  0.3878344940803757  0.3496301572633803  0.8804378070934807
  0.6249080522809158  0.3757768672064485  0.8779537112304584
  0.8850691019517721  0.3706994979605489  0.8694939635741572
  0.1270539795359534  0.6236660928415536  0.8766427743655884
  0.3791213791255170  0.6179989764128748  0.8726704159554208
  0.6078331035992361  0.6245342131486460  0.8913949384916744
  0.8819563542229114  0.6200459165118734  0.8738527568733084
  0.1301104732803818  0.8710322176820482  0.8641850519869360
  0.3744529075057572  0.8849189698712183  0.8598322560071273
  0.6122951791524990  0.8790991832335806  0.8802185719273742
  0.8897325234920117  0.8759498551601563  0.8785778278604403
