generated by phonopy
   1.0
    15.9923497217343744   -0.0000000000015236   -0.0000000000010772
     7.9961748610645493   13.8497811253384029    0.0000000000003944
     7.9961748610645493    4.6165937083140518   13.0576988688087816
Na Cl
  64   64
Direct
  0.9919840063099927  0.9909982206625693  0.0181321711718529
  0.2549705659222957  0.9914510382961003  0.0056479476399778
  0.5059977523077863  0.0027650890522005  0.9914663659057384
  0.7441163273417764  0.9961563331417067  0.9946138586080097
  0.0039709908957345  0.2506400153912032  0.9852655259903117
  0.2301337207465358  0.2724808205577646  0.9930104884121715
  0.5010677270853759  0.2569481419921243  0.9971166766404573
  0.7529246114966358  0.2340689874992419  0.0189691249524017
  0.9861115040195392  0.5226834603639879  0.9843415094430966
  0.2374780676656849  0.4909674244041446  0.0202648026957162
  0.5091653400583629  0.5059003122364880  0.9816001689066215
  0.7568678102565659  0.4959483675010652  0.0099795165642263
  0.0042522522448291  0.7397940079267712  0.9919952118449041
  0.2616295727808918  0.7625993150702263  0.9779082554652123
  0.5054081935759104  0.7468602387467606  0.9810986564675237
  0.7465451781724340  0.7516581947295818  0.9858459155248990
  0.9895965819423848  0.0086678865538636  0.2470024738034269
  0.2546996601820183  0.9937408934962551  0.2348457127803747
  0.5039305988620337  0.9952629065734926  0.2519639146045770
  0.7428897051006486  0.0090039459165983  0.2469038645958097
  0.0190188186965780  0.2577266706369306  0.2338456606713717
  0.2581661079904464  0.2370017045635676  0.2402548278011483
  0.4845491425409608  0.2469240201772187  0.2549689922625419
  0.7455956338614841  0.2422782551425339  0.2554308419123807
  0.9827083432405543  0.5072537098765822  0.2676832396591535
  0.2472363433318775  0.5100784289738773  0.2443274867876606
  0.4900366620476672  0.5146344059926815  0.2469940019818199
  0.7362551894544128  0.5285496671379940  0.2406343511444058
  0.9806541323890352  0.7521534301927683  0.2526182193918718
  0.2347371274042427  0.7374407311457731  0.2755564026097558
  0.5046256987284091  0.7699593744352240  0.2319521424965460
  0.7522106168625673  0.7554418616019583  0.2314891938921091
  0.9909482294159293  0.9869085619111704  0.5257057097997556
  0.2477046704039796  0.0026993757775170  0.5045415999176399
  0.4983864036659670  0.9868336106275273  0.5060334855629017
  0.7404973459514392  0.9980391745674142  0.4954561140171450
  0.0061170094235882  0.2346533910123470  0.5071665351431776
  0.2478256705674766  0.2577812087772414  0.5120830240794370
  0.5040586418705475  0.2307134861474237  0.5243744021909134
  0.7472081718429221  0.2606902648660043  0.4952874789773933
  0.0083764510663387  0.4991223859663777  0.4927851981545814
  0.2602722236249493  0.5071248117525525  0.4920746161647193
  0.5130114219766483  0.4904661527562282  0.4949109632092612
  0.7619915423193642  0.4951815464214839  0.4971376934339360
  0.0076830975366715  0.7380604374979178  0.4958368544269496
  0.2563144348929502  0.7285761395441561  0.5146422645293761
  0.4983079201664953  0.7292617364405497  0.5039551992269236
  0.7686600219497954  0.7414703135962963  0.4879703670834806
  0.0075687472285670  0.0097650421441427  0.7377483508661203
  0.2462383709299692  0.9887349213207108  0.7439490487048617
  0.5134853450297341  0.0045670583294324  0.7441945686282749
  0.7531632463608215  0.9914593090563335  0.7572779860289952
  0.9916940557281352  0.2403816613320026  0.7458844170222461
  0.2384565837006218  0.2599485322679277  0.7630890593857033
  0.5129254377227974  0.2588908599193289  0.7453114400106089
  0.7466824021083969  0.2396590145390260  0.7314407451719447
  0.9819547594419510  0.4907633272509808  0.7681433490122480
  0.2510768534560427  0.4954948319834084  0.7615475239302314
  0.5038485528250214  0.4953241788355155  0.7412743073277012
  0.7409323223032702  0.5041513165262076  0.7579826612805313
  0.0129802688840698  0.7522382457101303  0.7366779097450232
  0.2376776673630941  0.7520585855776842  0.7508653057108274
  0.5190993127793704  0.7450007954464897  0.7439378457585472
  0.7367338894724946  0.7649143389924056  0.7637179273110882
  0.1376398817581140  0.1088803106305278  0.1237145905780620
  0.3779159435021541  0.1289325710023506  0.1382644904268877
  0.6346354457998333  0.1244519525190783  0.1193734545864357
  0.8888873541867753  0.1226586418949273  0.1110740769868261
  0.1320835139401034  0.3914672120677656  0.1141505826996300
  0.3746028636497928  0.3587701706703475  0.1407380101357146
  0.6262267181474378  0.3704741731748510  0.1183801645288113
  0.8639473956856518  0.3908669293934701  0.1144024224678712
  0.1275209352479381  0.6221225977661641  0.1251500578891102
  0.3664412159295277  0.6438036898007831  0.1122911754821577
  0.6255512544353173  0.6171187390751904  0.1125621756322546
  0.8834112499072667  0.6271056423353939  0.1214884668895954
  0.1313674728050953  0.8656328005856909  0.1135917865388021
  0.3788362476181865  0.8683879653840421  0.1243930084605663
  0.6205879141556714  0.8769887594249117  0.1264040079347189
  0.8918819855540833  0.8597201151674725  0.1249195653478415
  0.1377386346488471  0.1131237745565959  0.3711941710131728
  0.3796624363167886  0.1277047061172956  0.3643541540538630
  0.6461766679213066  0.1222113622423868  0.3857509130811481
  0.8592468806636278  0.1427484873842755  0.3790074038498116
  0.1271102293429243  0.3780790127703871  0.3752387523087888
  0.3725219566735450  0.3631640236908446  0.3774924966462851
  0.6270028310256156  0.3860520340917882  0.3681834031554421
  0.8656844446483508  0.3901592519018380  0.3780646973714564
  0.1416665603650471  0.6048050033473770  0.3775348917014343
  0.3794312023886218  0.6239342912280559  0.3656039672750317
  0.6157491733363155  0.6389547406904077  0.3744476752467292
  0.8832593619982657  0.6252668532024631  0.3841834797277721
  0.1153010871496597  0.8845068585071838  0.3646281475143560
  0.3630531464146094  0.8898650105461654  0.3729790311931550
  0.6346542624636330  0.8634735799412423  0.3864061718934134
  0.8707226647154684  0.8551282415712931  0.3852875616408075
  0.1317743470939770  0.1257525194524241  0.6219913758455061
  0.3689724991387932  0.1288075536533770  0.6265872573303459
  0.6187034534531588  0.1321160406453279  0.6284524086682490
  0.8866032554641005  0.1216419543447926  0.6300287700292150
  0.1175670492090996  0.3836348808725395  0.6363989801884420
  0.3544239278193192  0.3995676542699823  0.6210879792470512
  0.6217636324516777  0.3795891730943383  0.6246862268864659
  0.8809323145960390  0.3804213008371710  0.6188710126576997
  0.1229476667285337  0.6197688771132471  0.6302017640843667
  0.3715577767214964  0.6250961681676085  0.6335099837468102
  0.6261017813339738  0.6212056888796538  0.6214022816889598
  0.8689666439123397  0.6361680666254758  0.6181646205035705
  0.1134086153531800  0.8980471989655201  0.6363774986501448
  0.3873562306869334  0.8768811089910897  0.6120436299674558
  0.6218923641020748  0.8875240455539023  0.6162143760725625
  0.8706397075213822  0.8701781481585007  0.6371978208997159
  0.1311187215957945  0.1283962405395897  0.8718985281612880
  0.3689014162044747  0.1170504217125821  0.8840232406212765
  0.6218196454855632  0.1223781914272754  0.8782112075337069
  0.8651102935184511  0.1431159018513336  0.8636806067198817
  0.1296118404636933  0.3643764921910065  0.8637649648942327
  0.3803178456406640  0.3665848256033837  0.8743903239101921
  0.6260177479154766  0.3801380558373748  0.8825319655063483
  0.8691690542419179  0.3660060118991466  0.8866013989527008
  0.1117964343832826  0.6241959329502054  0.8755702154317349
  0.3705831163600266  0.6264448257243684  0.8727188118960928
  0.6155806252009112  0.6260520257269724  0.8815615897362409
  0.8856152676024704  0.6215939448041889  0.8656829493589162
  0.1358613054670382  0.8728290375072081  0.8720609417828291
  0.3785092430998692  0.8801647558936163  0.8647219055734783
  0.6277329153464517  0.8724811614036563  0.8743220225409536
  0.8933074351722683  0.8950402985757707  0.8623696919653413
