generated by phonopy
   1.0
    15.9923497217343744   -0.0000000000015236   -0.0000000000010772
     7.9961748610645493   13.8497811253384029    0.0000000000003944
     7.9961748610645493    4.6165937083140518   13.0576988688087816
Na Cl
  64   64
Direct
  0.0023729656508925  0.0155194561818211  0.9957706991859485
  0.2562160603129537  0.9940383720619506  0.9955242126846081
  0.4958188473912516  0.9979807991560912  0.0112677104609546
  0.7386505909213723  0.0108642489083819  0.0090499099556352
  0.9968646679596830  0.2436766952728656  0.0011585141157580
  0.2335079626665550  0.2436411030143368  0.0147490982082248
  0.5324779268988600  0.2400739788426823  0.9874165795537402
  0.7369934589293853  0.2435072536841019  0.9992622101823178
  0.9808934493668078  0.5068116536936904  0.0232936060188937
  0.2604277311967442  0.4943127246696519  0.9920777806518476
  0.5039803547425745  0.5020158621169742  0.9813370622860835
  0.7403673850392197  0.5066286005280817  0.0149244345316179
  0.9955185227415440  0.7618906785763051  0.9780457354844228
  0.2371693291034056  0.7643938089113987  0.9820232458861873
  0.4771014267594496  0.7507210059121697  0.9934541197227549
  0.7499876737505128  0.7477263869369974  0.9934537271574586
  0.9977203735881270  0.9899109862607476  0.2579059278882768
  0.2442358969306083  0.9953962389995481  0.2485153651156791
  0.5120532412157615  0.9973526814347099  0.2490151615793948
  0.7332581157548067  0.9930262195012023  0.2723512096557124
  0.0022359117013527  0.2646974388873121  0.2392226595142705
  0.2507136046561325  0.2558544284587044  0.2542176579435417
  0.4832356705601857  0.2480921709961342  0.2486388936608970
  0.7342998334710412  0.2645782421189355  0.2530855147440443
  0.0094346213976569  0.5016881707953360  0.2387791896804028
  0.2585621344702543  0.4959358442118479  0.2380016890013303
  0.5056837684517823  0.4754937483192573  0.2603595391729466
  0.7578646884281716  0.5033737923089681  0.2447574011363702
  0.0043424131639401  0.7336974908375304  0.2427290145286282
  0.2553887522658002  0.7455957465098363  0.2567312863570076
  0.5093956070947149  0.7651174347881194  0.2438818487152270
  0.7347490129960135  0.7651707801356318  0.2573072869202647
  0.0037167516992799  0.9955969386450770  0.4896216701869367
  0.2490420965483240  0.9912659323605959  0.5079196174618746
  0.4939900230709766  0.9958950474752857  0.5109501673582764
  0.7558969948612815  0.0149088606970601  0.4854225692272779
  0.0100824740270606  0.2654763966284429  0.4879149993999335
  0.2584803059723891  0.2451792425621086  0.5057026323283754
  0.5135462594201412  0.2265334089123061  0.5015311319044830
  0.7535151082102387  0.2513513620663557  0.4983286733560346
  0.0003346316069555  0.4799669451892880  0.5137141420230258
  0.2284903728208894  0.5117928395949551  0.4902141539280065
  0.4936532241792260  0.5182161671685266  0.4890151008834323
  0.7454449879758898  0.4974790798402751  0.5056047568983346
  0.0035282605711653  0.7528590975425286  0.4810230465651985
  0.2476277287196466  0.7488229588580519  0.5018265649649731
  0.4995139172792614  0.7481878901671462  0.4944062452006193
  0.7491087912695478  0.7517246983233905  0.4789830741458560
  0.9954485648408765  0.0172344475150236  0.7428834998146744
  0.2447354963180657  0.9936711873650368  0.7574851423945189
  0.4911569756874044  0.0018486306938070  0.7572599354429334
  0.7456578913509341  0.9972721445370687  0.7631578758542491
  0.9929049438367418  0.2577572020447261  0.7508174225871050
  0.2499671988274452  0.2550487750114804  0.7334442135832637
  0.5144329168576756  0.2408327335137579  0.7575242134828879
  0.7395389662482792  0.2568449852280979  0.7521818755025798
  0.0098824605573037  0.4886919425346994  0.7465802415810182
  0.2453962889491479  0.4977088602960079  0.7442778158656522
  0.4966279312810851  0.4940612308178218  0.7557174299859971
  0.7504508250983298  0.5146193346018784  0.7416187217532781
  0.9852876696286984  0.7435486311213750  0.7618942458181135
  0.2557965423998929  0.7518416114691064  0.7451415171512665
  0.4993971198702817  0.7546120360237987  0.7636047794932992
  0.7324134477891371  0.7693484238511279  0.7609785724246652
  0.1281255772034674  0.1288133589104909  0.1154458330717130
  0.3880512617256692  0.1285827375514518  0.1077269671127583
  0.6254170701171632  0.1280535140030095  0.1184902294537142
  0.8671738555841229  0.1283601735180412  0.1116768507316587
  0.1377021108820535  0.3631254347067067  0.1309619816197146
  0.3796498442575779  0.3832656953542878  0.1209199233552347
  0.6134382030325551  0.3718569869940104  0.1272451111818215
  0.8848395890485115  0.3659672877323688  0.1379734751524742
  0.1413237510058097  0.6082219259211593  0.1296442386254573
  0.3610080850408135  0.6259422353237681  0.1144850528984369
  0.6120949066854989  0.6168520292292556  0.1245075826441106
  0.8540980047320609  0.6472349743868154  0.1283641080085376
  0.1054835149648922  0.8870227780857460  0.1258572524876455
  0.3779554749451895  0.8695556596044614  0.1396222939110058
  0.6202433437284727  0.8859103465844900  0.1142810855553718
  0.8634288903301828  0.8803617605120175  0.1304262891819806
  0.1190188945989795  0.1191843165688996  0.3718801323688236
  0.3737627606570039  0.1500293212286604  0.3697478374925263
  0.6152237168427416  0.1184829186103161  0.3838938241671728
  0.8761709310188218  0.1162469368125685  0.3696755792305539
  0.1164162033304064  0.3686976095810633  0.3905011517547826
  0.3821972777005149  0.3735019777889615  0.3688770700315460
  0.6279030080048540  0.3819713343834041  0.3818018813517650
  0.8722418603011168  0.3847947678784389  0.3685010478229790
  0.1225333537007661  0.6415438879536033  0.3616893317975506
  0.3802807650767694  0.6296821379238445  0.3615641171615532
  0.6367740224671269  0.6340488038826753  0.3623557889914213
  0.8845835221333833  0.6193141563681606  0.3914798843727948
  0.1354547228991942  0.8567754547261617  0.3799313932940457
  0.3699776882513933  0.8567306675017674  0.3904518003626687
  0.6278876407145979  0.8829580407892081  0.3703303344979421
  0.8823513146467675  0.8859365462545747  0.3753840357401432
  0.1305967071178982  0.1289840041629472  0.6264219649441684
  0.3690074033761596  0.1226660066778914  0.6287497255286429
  0.6309921344803402  0.1135819222066839  0.6357844157905239
  0.8770051367628253  0.1257488242502362  0.6154690811538513
  0.1355956711860460  0.3561933623496253  0.6267029591049332
  0.3849190061528991  0.3741041094471753  0.6286999062534706
  0.6235141566786453  0.3856712817099416  0.6249207463513675
  0.8587046473097945  0.3810365156980339  0.6333081019068905
  0.1239110132884400  0.6322376826489501  0.6291410087131777
  0.3671105032535247  0.6245349416074677  0.6260440891769223
  0.6528253737574499  0.6219560278248182  0.6137982108385178
  0.8731211306184977  0.6294941660175883  0.6395516835103418
  0.1346924321688121  0.8866428313951686  0.6050577672968999
  0.3864309408577689  0.8649953689750106  0.6229366322865340
  0.6259861004030067  0.8794474057698770  0.6294848679555652
  0.8638064082774628  0.8892997670813056  0.6314962110670007
  0.1348456732817772  0.1340800327447260  0.8619815989444434
  0.3711873612878087  0.1296875122735064  0.8821607128520378
  0.6274218755973322  0.1229391347146970  0.8890149006768477
  0.8917654647712188  0.1351322919611757  0.8548747816560829
  0.1287839500897795  0.3581108607704119  0.8815492108057988
  0.3668512198247030  0.3684964632013371  0.8841517167445490
  0.6257699938243575  0.3689084498938400  0.8800549007274668
  0.8694057065603995  0.3641889469565928  0.8731281513725793
  0.1190892506045733  0.6349768390171819  0.8831070097622816
  0.3941426092379052  0.6189817280372674  0.8766045567358635
  0.6275433742002293  0.6279302957472019  0.8652167295671893
  0.8699360278017996  0.6263761623991522  0.8687544732583202
  0.1185519597975082  0.8802014444994916  0.8738766463689133
  0.3824367688672613  0.8699388845392861  0.8697748765686220
  0.6327288102369952  0.8817401805036111  0.8684036317171628
  0.8754755386469503  0.8814650680199503  0.8514493938050750
