generated by phonopy
   1.0
    15.9923497217343744   -0.0000000000015236   -0.0000000000010772
     7.9961748610645493   13.8497811253384029    0.0000000000003944
     7.9961748610645493    4.6165937083140518   13.0576988688087816
Na Cl
  64   64
Direct
  0.9874018500945095  0.0055791447616046  0.0123562301269778
  0.2672076364615171  0.9823763228401096  0.0067816990448427
  0.5036178677736549  0.0174708073303910  0.9808756154721473
  0.7303511289660720  0.0160205034356638  0.0048915775869046
  0.0114645016154823  0.2563847844544388  0.9986260910680516
  0.2547885518462895  0.2424834647826825  0.0055961855089314
  0.5143597368411778  0.2434700655936332  0.9902016979680385
  0.7541468449645756  0.2579143244427780  0.0003222895480756
  0.0165128367617610  0.4887477487710044  0.0035253821636571
  0.2529940323064952  0.4897202157205778  0.9984786384352622
  0.4916945235023285  0.4907675793603424  0.0180930105009977
  0.7390930046581012  0.5070022166921581  0.0051690653350255
  0.9953468389703644  0.7503365240717162  0.9995918223498990
  0.2382810626962042  0.7652014247816975  0.9966241912061559
  0.4967936684628373  0.7434959572770358  0.0030912317614960
  0.7682245865059417  0.7345864292435407  0.0034714583558197
  0.9947649921139848  0.9949415890793244  0.2492553541263848
  0.2541483688009123  0.0038920894978886  0.2558375646672718
  0.5009518382760831  0.9887104734688363  0.2563179133861998
  0.7405663901993190  0.0197719589847818  0.2331218558497900
  0.9846487917450797  0.2647873378389026  0.2533587926858120
  0.2482564525720248  0.2493658586686693  0.2488018932774407
  0.5266730880679968  0.2289708812653428  0.2460957421117112
  0.7567446120183732  0.2315575018766881  0.2606181883514640
  0.0068012251506946  0.5154959447046477  0.2302584891291855
  0.2477017814383937  0.5041675115008382  0.2380173208602106
  0.5054133141390204  0.4937310555504680  0.2413855413896629
  0.7584218824788110  0.5132803257252148  0.2431564314088618
  0.9827496598802492  0.7600955408572063  0.2558860584639727
  0.2567491387927872  0.7441164053859896  0.2447569983004685
  0.4787335988461172  0.7713285291914478  0.2541521063858035
  0.7461389327690271  0.7654570062064623  0.2377412059494557
  0.9952191315957629  0.9979757698637739  0.4861720779464654
  0.2475920330961214  0.0045541433499733  0.5188800674062547
  0.5170313759283791  0.9905409753867749  0.5017368722105178
  0.7451240645893717  0.0047621313214597  0.4882200214954822
  0.0045375575431253  0.2615629350350801  0.4763415479011673
  0.2582130627972963  0.2306364677731984  0.5102586658677952
  0.4881573683777513  0.2506506442769858  0.5087670877700544
  0.7532796105667217  0.2409767414973557  0.4948672235609076
  0.0057951338639102  0.4781145744695607  0.5126252742976536
  0.2549585823207579  0.5051336764024943  0.5005399201106552
  0.4970935770119354  0.5089902686477891  0.4881582894611567
  0.7394291972755818  0.5009724740537085  0.5088512108616958
  0.0049542719425775  0.7576448476988292  0.4968873431885282
  0.2419800056103425  0.7534920604725303  0.4969439556121865
  0.5014117531734164  0.7449719130887177  0.4929873749890625
  0.7510767678594603  0.7210282321063518  0.5143008708024736
  0.9909534323553993  0.9988667005163572  0.7644726340969440
  0.2573987574717272  0.9903274288318398  0.7546774149578697
  0.5073782976970274  0.9969971651202688  0.7607825248582586
  0.7621079721044504  0.9887108285692238  0.7562236406557148
  0.9929000268064765  0.2516613635527041  0.7641142881679915
  0.2624086928118896  0.2292841337982748  0.7441183179543955
  0.4937253604206875  0.2546961339299957  0.7570114530209332
  0.7602680296297777  0.2519957613578362  0.7457535914983706
  0.9945058085193230  0.5143293602524144  0.7428857148415461
  0.2330050865157604  0.4925965825226676  0.7703457213589923
  0.4963706218782146  0.5174625390944614  0.7340943941525720
  0.7397655288410443  0.5165459960629482  0.7504764320527224
  0.0088899788244093  0.7400726275853371  0.7675404097965778
  0.2580579213937646  0.7495508525562485  0.7518684161060654
  0.5032347229320431  0.7589066030114002  0.7551313357016247
  0.7659401913942140  0.7449329646358216  0.7482951434010299
  0.1413831402458957  0.1125352299198806  0.1167176830143703
  0.3628013237674998  0.1237221453443087  0.1495835253770510
  0.6288235994733997  0.1301745835861806  0.1314673506705128
  0.8698376960995634  0.1249677465128425  0.1376664982186793
  0.1341115770374836  0.3703652937533954  0.1203100064055047
  0.3712457364809777  0.3737694477381306  0.1379332474800076
  0.6357419395386551  0.3586598664359735  0.1278559587623705
  0.8647313955246111  0.3801515799683167  0.1373872975620917
  0.1335754061773276  0.6296919191556574  0.1132948736554884
  0.3675084073139613  0.6147459750327113  0.1375087634277282
  0.6403522267345521  0.6266380183484656  0.1214282477722593
  0.8877609898175651  0.6274500018829424  0.1146282251144752
  0.1361792783018497  0.8724465497725835  0.1183607907466373
  0.3785418232152384  0.8668797358801945  0.1259836770578250
  0.6269751814446085  0.8722932787461606  0.1179874177832447
  0.8686322447572261  0.8883195761583424  0.1229781541977146
  0.1308154592408706  0.1268405829972573  0.3718503142385369
  0.3767553185569840  0.1018110133099708  0.3857117215984808
  0.6191468424507980  0.1236138172534655  0.3799405044607331
  0.8651627417859148  0.1290885908584941  0.3706590828292918
  0.1301104556423023  0.3717699800845229  0.3808979957584580
  0.3822949700490908  0.3780263181791504  0.3583949740266126
  0.6232346268666152  0.3811787977627191  0.3788280591380190
  0.8838994256209127  0.3710075286201542  0.3729135986032479
  0.1137964751435138  0.6302926527326751  0.3711331393769605
  0.3831683943593229  0.6199814638702641  0.3588231018608611
  0.6214287622953677  0.6334399940012806  0.3699881987199196
  0.8704791831565044  0.6176116799955931  0.3789229423988379
  0.1205457101466854  0.8838789017852049  0.3661458403338530
  0.3683085649924579  0.8812030662406649  0.3854623330809941
  0.6235975401352016  0.8724438857129306  0.3730791480398135
  0.8817161263861466  0.8740404645404296  0.3817070300439361
  0.1237562267255809  0.1298414905455492  0.6224078505386403
  0.3906252220703063  0.1115484129591674  0.6340888281261274
  0.6207513690918303  0.1276346275832844  0.6356133577441735
  0.8838905700655402  0.1036771221738025  0.6239709101839467
  0.1207401615269230  0.3704404692196454  0.6369489299359227
  0.3740557363220789  0.3977969499491351  0.6062421014251467
  0.6115358033343676  0.3802896037690114  0.6350292023215494
  0.8747692771940025  0.3735435049903958  0.6286877247468535
  0.1313354261318479  0.6147672410245115  0.6276074840433226
  0.3827406128814231  0.6259035648658576  0.6224735350436366
  0.6180147739986069  0.6280495125904119  0.6191399712400077
  0.8750953210990325  0.6271128334820425  0.6129164087550009
  0.1297144429373616  0.8752067719263814  0.6288659590922667
  0.3938841668334799  0.8651114908215911  0.6264565025595199
  0.6101837039902136  0.8601928075791913  0.6336764006214498
  0.8667025515587005  0.8653219502853277  0.6248163587879724
  0.1202312645790229  0.1280296574634177  0.8787829221169692
  0.3882048386620911  0.1320655263613156  0.8788788387146427
  0.6138525799353947  0.1299907120390219  0.8740712639677235
  0.8882235526675510  0.1219680396202711  0.8706812333833057
  0.1280296241297446  0.3803570155889916  0.8589493275807372
  0.3896252375229944  0.3686459350040702  0.8715330213391784
  0.6189792941703232  0.3672057354133169  0.8773191461155940
  0.8709446441564634  0.3637799409854388  0.8817514355697638
  0.1273971186129155  0.6326780498184830  0.8692385005651523
  0.3754379765652544  0.6361638266013396  0.8636755866770137
  0.6354479942405111  0.6217312091900380  0.8781044243519919
  0.8540326016057571  0.6253916570182572  0.8900840865019317
  0.1162203421740763  0.8658268579318091  0.8886122964340532
  0.3690385386640346  0.8670988412459870  0.8761423883406900
  0.6311363709803998  0.8652620539126196  0.8819479561545346
  0.8634092150753290  0.8735261814412285  0.8780840383447586
