generated by phonopy
   1.0
    15.9923497217343744   -0.0000000000015236   -0.0000000000010772
     7.9961748610645493   13.8497811253384029    0.0000000000003944
     7.9961748610645493    4.6165937083140518   13.0576988688087816
Na Cl
  64   64
Direct
  0.0317837407799576  0.9870209268030863  0.9933129559803425
  0.2519978948636500  0.0004593021377692  0.9994978396926455
  0.5077741191602320  0.9991879111036532  0.0007215170445982
  0.7462937578889310  0.0111511087518009  0.9983935126759302
  0.9878905779570957  0.2343684115803263  0.0134786188205789
  0.2518261477705808  0.2490717617379817  0.0083296296629053
  0.4980108516320183  0.2245700828371071  0.0214074986552543
  0.7613579136513634  0.2343229262249418  0.0229122311140190
  0.9973886229663295  0.5126385186024633  0.9774962330787943
  0.2447558954393830  0.4966442698343093  0.0007120777891776
  0.4711049854273667  0.5023485652164925  0.0063193917825454
  0.7533882455910816  0.5005627167368614  0.9921553904689542
  0.9910012451328220  0.7504837715031105  0.0240152665666500
  0.2409358617499729  0.7730403501472777  0.9996214831402420
  0.4870698189803938  0.7422461526091102  0.0116699974562103
  0.7468937761509465  0.7562098480806422  0.9979380577607420
  0.0190125806876024  0.9990614190392276  0.2477776173789456
  0.2566099232836291  0.0238000860650516  0.2209191004955706
  0.4783737073158595  0.0038780291595744  0.2444830168223424
  0.7596467832129243  0.9945713758643792  0.2615370536203157
  0.0095501001409538  0.2392708370207914  0.2433958363289303
  0.2604721102425805  0.2361600175733333  0.2537267441969086
  0.4944181707313764  0.2523742745980403  0.2512305769509656
  0.7509412762631648  0.2424816747138466  0.2446212899604002
  0.0107683434365545  0.5001732934369560  0.2506488610107012
  0.2746215932143426  0.4902163963969388  0.2419543485361873
  0.4936945477763504  0.4916056083833183  0.2603325913911064
  0.7599903341910120  0.4819138976025873  0.2603021618746040
  0.9753028492700870  0.7550504091075012  0.2466673428624442
  0.2452211808102963  0.7383431208605662  0.2484214405871897
  0.4874586462136370  0.7600915989820558  0.2554723260220347
  0.7571660006766782  0.7450194454918845  0.2471085246340398
  0.9883797707339499  0.9916539276285741  0.5091756615159737
  0.2383727015672343  0.9882436919018994  0.4982281556705366
  0.5041164069456820  0.0048983318696919  0.4996592357755184
  0.7542216374894133  0.9994740116317137  0.4805062868442704
  0.0024925939587712  0.2571803518026005  0.4928603978033455
  0.2556693195477132  0.2555077649830324  0.4860513161877750
  0.4905425838929328  0.2731903540211497  0.4893919441697072
  0.7557013216559396  0.2303722381668429  0.4957669598303074
  0.9845612125465953  0.5049195090847145  0.5151372174762204
  0.2232507752130712  0.5167628976740006  0.5078815546044377
  0.4994691872777596  0.5179445192986464  0.5015177500210529
  0.7389489352332633  0.5128326815859674  0.5047250970915811
  0.9935217601617776  0.7733773103528119  0.4748730455676590
  0.2323902941892448  0.7531420319826486  0.4939841656107901
  0.5093019440851767  0.7681122124934736  0.4855061639534163
  0.7510660283229706  0.7526662340201729  0.5104864918233308
  0.0114723064502385  0.0059666146336847  0.7469839755902221
  0.2539963920902262  0.9888177961089536  0.7455589276105196
  0.4982867001026087  0.9935283154133692  0.7403114382277446
  0.7716263457743215  0.9803083653710987  0.7478260061872555
  0.0052415882754368  0.2538671177338122  0.7579394825212614
  0.2710386890283187  0.2504154940187852  0.7297892549152654
  0.4983983159195466  0.2376785507513265  0.7566392103945420
  0.7477964488486606  0.2505069516707632  0.7794183436136068
  0.0016156080675430  0.5075838933811766  0.7333664320188383
  0.2477846476594427  0.5163599013841145  0.7433384750070803
  0.4968099497676590  0.5088987852332867  0.7490783130967429
  0.7434270433432231  0.4863219292540981  0.7608759941992960
  0.0058440895224490  0.7441257239466116  0.7578811694568012
  0.2624081170140181  0.7444605250855787  0.7579022527239088
  0.5126783084376718  0.7330255254189181  0.7377273406344186
  0.7511596612654861  0.7428889376833470  0.7599777876792642
  0.1316791750298025  0.1312657972257625  0.1287885498372266
  0.3768277396480207  0.1207499959846130  0.1355410652468549
  0.6230635313376440  0.1206393963046476  0.1268105807673249
  0.8824339795680609  0.1247164119977927  0.1216511018997053
  0.1280058019094612  0.3706909934681036  0.1321154639955263
  0.3745969895899829  0.3743157862661003  0.1174013269224066
  0.6141150695257487  0.3724605249661579  0.1344879329459913
  0.8735561014990171  0.3761576883909954  0.1281330339745723
  0.1351304988992808  0.6261768164481670  0.1261613841075895
  0.3653029698804504  0.6229556037894182  0.1322488825615497
  0.6390990569962696  0.6233678952426320  0.1324064678581595
  0.8791178621041249  0.6225426316937142  0.1160016564633503
  0.1371937661346608  0.8658887227733043  0.1208849439612781
  0.3726573025652885  0.8636801009664605  0.1289432316912180
  0.6361863051424437  0.8811042964441861  0.1154194359083528
  0.8819089713418725  0.8693509714357747  0.1282791846656919
  0.1422701807253070  0.1203140498319013  0.3778026999761248
  0.3865009848486652  0.1164936849917518  0.3648653619428854
  0.6257675966062751  0.1399095883284546  0.3641829556425955
  0.8863998085370491  0.1293395029786849  0.3681840707446857
  0.1112064275125800  0.3782712884189512  0.3883366756534554
  0.3689149032774327  0.3738696945005612  0.3755029511795034
  0.6460889244052419  0.3626696920228853  0.3688725093129011
  0.8890339043127252  0.3771864477702375  0.3573251970712233
  0.1296879298501131  0.6186275806513243  0.3803559720641143
  0.3867912431512123  0.6228343660207436  0.3733837805656587
  0.6291688092382036  0.6104600644690080  0.3744373741521434
  0.8836586357243530  0.6282719257059342  0.3708073700912831
  0.1414647821956964  0.8625171205590283  0.3641951776610397
  0.3736557034771265  0.8854870354540837  0.3608437484275113
  0.6231891747355117  0.8673994655429051  0.3727196074399408
  0.8961927664731142  0.8830199947847233  0.3589183377457420
  0.1254978350988295  0.1129356137004901  0.6218036708622732
  0.3784243957101677  0.1186954722528595  0.6329643425175969
  0.6236261639046355  0.1221350629723068  0.6215771273057297
  0.8766348605744477  0.1271740811784737  0.6218204989611946
  0.1111745651953256  0.3975321715552788  0.6185415037310815
  0.3525199973754931  0.3768994177564117  0.6357713755473149
  0.6343782200429375  0.3688324070469134  0.6257645161396279
  0.8661504120122758  0.3781833085746663  0.6324549171489110
  0.1218957548703253  0.6231657682864137  0.6328851167921683
  0.3720051065990936  0.6358502669533643  0.6129592394549228
  0.6060321330434054  0.6448695314983836  0.6314723387603901
  0.8899700991837487  0.6189953101061055  0.6120480098093593
  0.1177945421360393  0.8872231365579877  0.6152458889523641
  0.3866111001805032  0.8633303720702077  0.6167433133059852
  0.6289057872008395  0.8711796160856489  0.6148713131871587
  0.8817310365890932  0.8692974118010480  0.6183767244471504
  0.1089662171848533  0.1283388388717364  0.8889027217193411
  0.3806978645487239  0.1294202715666291  0.8675779430771428
  0.6340190443550919  0.1200975362675815  0.8811398485057490
  0.8679289721520835  0.1232519782164270  0.8817926851672998
  0.1152891329667183  0.3847885786363575  0.8654087316569048
  0.3747388251632803  0.3904405141120290  0.8660233987608628
  0.6227179284305614  0.3775637742545620  0.8886898440569493
  0.8838788387639810  0.3670447791803828  0.8740788287666402
  0.1260657014010096  0.6188323856759662  0.8713030488274601
  0.3706431880155402  0.6246927074284274  0.8804642002627157
  0.6246357726649234  0.6308369592619959  0.8672469728718507
  0.8739054251113674  0.6288316140460987  0.8793616275578396
  0.1164374555244408  0.8659716842667955  0.8924431620145424
  0.3739057955422460  0.8934198566752352  0.8701544489825432
  0.6305229279931326  0.8743850792388284  0.8814376731904378
  0.8661436867424752  0.8834881960822160  0.8783125156277488
