generated by phonopy
   1.0
    15.9923497217343744   -0.0000000000015236   -0.0000000000010772
     7.9961748610645493   13.8497811253384029    0.0000000000003944
     7.9961748610645493    4.6165937083140518   13.0576988688087816
Na Cl
  64   64
Direct
  0.9995952048370648  0.0040964545433459  0.9931942306541329
  0.2411553933043688  0.0082621146009477  0.0077105844288112
  0.5061850096993961  0.9896206702262023  0.0023911906919521
  0.7585561397635143  0.9747549424139790  0.0215116950713033
  0.0008094392015518  0.2579405244424616  0.0036611909274040
  0.2377843301833311  0.2433164709373219  0.0143524874332986
  0.4854867468012553  0.2543801462660920  0.0039294414086433
  0.7525516906382844  0.2462464561042532  0.0041319700113043
  0.9957744733225063  0.5010280981065860  0.9938365427998043
  0.2495423781080643  0.4906372552581996  0.9985471018518034
  0.5006037910302015  0.4868048207879361  0.0250298356034423
  0.7535144710261182  0.4965828362080261  0.9864835613929419
  0.9881385025395718  0.7523502991901386  0.0010137157207965
  0.2500002499929018  0.7559471190045242  0.9981433749749623
  0.5070188516614840  0.7413621606422417  0.0129115593884595
  0.7613016143179996  0.7445625358869042  0.0065360136505916
  0.9918490214369354  0.0000079251054451  0.2438855535502281
  0.2336454208294204  0.0100181786691937  0.2681849324044056
  0.5133442174673917  0.9985472621600219  0.2348592060713239
  0.7530188161900183  0.9955921476726499  0.2626755660205981
  0.0063758650102594  0.2526648598842806  0.2465098460071488
  0.2496913882198294  0.2404760757551120  0.2516222875067342
  0.5098443918000356  0.2746174543531835  0.2432545265157033
  0.7466662124153856  0.2536915988111706  0.2469124899058840
  0.0075150859472985  0.5104229408433659  0.2316929056112598
  0.2540661688116525  0.4935164114472353  0.2615356967594443
  0.4988241028101551  0.5075356658827426  0.2595645647733882
  0.7531490743502297  0.5074770997080693  0.2569575420513512
  0.9964428811794146  0.7287393556086427  0.2871539888861169
  0.2539665467794816  0.7649820322379124  0.2171314479096983
  0.5128311512671505  0.7246271974142372  0.2574250907450842
  0.7606740566398829  0.7375533116835313  0.2509703271987112
  0.9803129833253150  0.9964986903924885  0.5004883738405945
  0.2465040767624939  0.0068915370738515  0.5034993861244288
  0.4958766278832147  0.9995086202769355  0.4980496146334848
  0.7525824204189882  0.9978173926338354  0.4874060624555150
  0.0124263965560993  0.2506711117404070  0.4950574602479610
  0.2481496701219899  0.2476490725371210  0.5047003817395828
  0.5241206194911570  0.2706426433682005  0.4759784181532331
  0.7477836642710227  0.2615216084863508  0.4751655135619131
  0.9806115561506810  0.5117023416423913  0.5032841362378666
  0.2650553322187831  0.4878184720471512  0.4984103152409922
  0.5146651122830302  0.4896723664669631  0.5075576597039442
  0.7674996659300380  0.4986357144173585  0.4877209945424898
  0.0032216243584730  0.7524276139550934  0.5069776478993366
  0.2492159770317445  0.7535676152618024  0.4913398383442291
  0.5101142513221576  0.7373358092991352  0.5151346806371010
  0.7503113291126303  0.7625204524235532  0.4977684415930392
  0.0001963300698016  0.0019533715777503  0.7515883618481896
  0.2574965222330298  0.9907414625366372  0.7571504257012225
  0.4760655292339742  0.0089413867300948  0.7558735140626907
  0.7414281672565431  0.0090190389833835  0.7519156621670603
  0.0308877095710340  0.2346996346800790  0.7309792116284693
  0.2324967698619624  0.2604340292529994  0.7369755027705366
  0.5098292799541835  0.2288355486999314  0.7490509179730547
  0.7531582520997926  0.2536434732447729  0.7577064778990865
  0.0123039980735858  0.4775834219610242  0.7403913081482639
  0.2451253679211075  0.5077336353523171  0.7580196223304206
  0.4919848897307944  0.5093056153651008  0.7506414267340404
  0.7419129164949441  0.4898477388739971  0.7494860077788356
  0.0001474228868965  0.7496646183547546  0.7439164509497918
  0.2510025373943574  0.7511275929862478  0.7519142172928223
  0.4895721711929742  0.7651430373902823  0.7611461932422989
  0.7410462176557389  0.7345589542034954  0.7745552857814990
  0.1245201421819591  0.1251660307561838  0.1311126411058706
  0.3841604971747488  0.1377780176363058  0.1056349113207081
  0.6344917055132773  0.1063682511915258  0.1265820117621387
  0.8846198403308403  0.1235551297795089  0.1200017039932405
  0.1308198303962690  0.3658576797035208  0.1262642839312400
  0.3717736566063927  0.3665306137644863  0.1414649805855993
  0.6080555331212496  0.3763605716361115  0.1164398677481059
  0.8744879627970645  0.3675863813958248  0.1397271579162964
  0.1393105337954460  0.6221141368323582  0.1112572817338567
  0.3693988686277059  0.6121872290119893  0.1428165783427061
  0.6324598041436312  0.6224384463056840  0.1233227620529977
  0.8850998354418659  0.6240320395852700  0.1316753857432463
  0.1320219114605846  0.8830098726273565  0.1240074518508489
  0.3796886453521897  0.8759604919412287  0.1218239173604707
  0.6166565804486455  0.8752918473369981  0.1343843681720729
  0.8880731634429572  0.8838835594676661  0.1088841617412311
  0.1073827553577894  0.1422815043016738  0.3760861357447778
  0.3896713601063617  0.1264048281530436  0.3784190868356178
  0.6296897033532665  0.1136148461810871  0.3720714023927309
  0.8780087749063966  0.1092632139035511  0.3763809815264454
  0.1248469593454225  0.3773046626070559  0.3681595291370651
  0.3718141328038385  0.3769452030412373  0.3806641717703402
  0.6163417943277408  0.3844170650259329  0.3738439273636602
  0.8634402436506500  0.3836523137067492  0.3842488835029302
  0.1397517144231676  0.6172011683804445  0.3593128738587145
  0.3914216400501174  0.6352040738039444  0.3638052016961239
  0.6279315452661280  0.6292748609723309  0.3732916295707265
  0.8606399507274511  0.6360406344967877  0.3806225079251183
  0.1171644348572376  0.8787536007901244  0.3802190729046012
  0.3737929555768136  0.8642360874424625  0.3788204491912425
  0.6091203027452687  0.8780271303432537  0.3937945828890286
  0.8725308248897030  0.8763943567266057  0.3698503586589883
  0.1264499222810437  0.1212608312909871  0.6220386297521026
  0.3918474376643078  0.1074842707833618  0.6334861827638397
  0.6151229824550297  0.1332466965821630  0.6289208058279662
  0.8819220329532462  0.1101006097393991  0.6379286588024968
  0.1244665979190056  0.3947590448260461  0.6128443547639232
  0.3620668633735036  0.3638159536630761  0.6449840477544310
  0.6262437521223860  0.3865138696483885  0.6251994147553134
  0.8708034909045560  0.3903615616341019  0.6165570758779061
  0.1375123596300175  0.6230853978722241  0.6253631132365147
  0.3728322150621631  0.6328356780867285  0.6289971783226188
  0.6156347205878070  0.6361276015796067  0.6201446205853597
  0.8717860412423641  0.6241929663607411  0.6270975681106612
  0.1318889243073646  0.8715463439889763  0.6213511235264721
  0.3688555439887096  0.8616439204293441  0.6317763634662015
  0.6190120333986127  0.8651183994560455  0.6338977064553843
  0.8773833733884295  0.8716191616800448  0.6412538032787136
  0.1423370446916792  0.1133133596012133  0.8777991957031902
  0.3819326446142566  0.1361593342591196  0.8537932368711708
  0.6311438261463260  0.1273826387808601  0.8663201638616012
  0.8799298263617215  0.1331245910321028  0.8744349781058802
  0.1137308731058585  0.3704614846929545  0.8788541116655650
  0.3701013461153931  0.3758806296419658  0.8805645189552656
  0.6304989483761907  0.3682966422652948  0.8731362918245692
  0.8675128520810265  0.3799251587954897  0.8556634430578769
  0.1236577080442570  0.6209375323676223  0.8724375394304977
  0.3625838142396991  0.6346179168734164  0.8782091305893952
  0.6398335641163100  0.6248273229002641  0.8620374367934052
  0.8743938615862565  0.6247764997712577  0.8687749568362876
  0.1247575536241703  0.8622933801575915  0.8843361613816864
  0.3788409464081160  0.8757619758839136  0.8710235055321208
  0.6400183700466284  0.8616760580498516  0.8579808005193039
  0.8587082365005796  0.8704260175236378  0.8846311456738529
