generated by phonopy
   1.0
    15.9923497217343744   -0.0000000000015236   -0.0000000000010772
     7.9961748610645493   13.8497811253384029    0.0000000000003944
     7.9961748610645493    4.6165937083140518   13.0576988688087816
Na Cl
  64   64
Direct
  0.9960634584392206  0.0260067782457768  0.9816661369943960
  0.2263509221248245  0.0079431962396887  0.9994924371411088
  0.5155425069965330  0.9988972883892822  0.9917136940259978
  0.7512487032281828  0.0085601246809254  0.9860635062532273
  0.9938975293525890  0.2675098623201972  0.9867758216927629
  0.2564202330888617  0.2382889902587409  0.0060469822773855
  0.4888766017297542  0.2511745543621394  0.0087357025168141
  0.7417524991070771  0.2600473573774044  0.9927750080039095
  0.0025830324031353  0.5128964795317481  0.9983831587661898
  0.2469388751776685  0.4798351376504605  0.0076047983515422
  0.5060987142549703  0.4984810773162019  0.9974229363437574
  0.7436259321449291  0.5041526521342141  0.0045020660815153
  0.0123176546661065  0.7297833787682783  0.0055984450417536
  0.2403811637176573  0.7568220915689915  0.0047712982612955
  0.4885960661237010  0.7501210503655247  0.0071514190968373
  0.7354061604134453  0.7512222619429713  0.9933083775734298
  0.9872891174668214  0.0097641266123766  0.2621026124031110
  0.2408301178932493  0.0200044696938985  0.2587686643077271
  0.4938456308515747  0.0024351144246760  0.2455865469757234
  0.7529665406687471  0.9950867028845918  0.2597567939575660
  0.0031671564914091  0.2511621963253125  0.2377794856307473
  0.2410544193990056  0.2633108460527882  0.2478443357913807
  0.4967608926328560  0.2390884955130067  0.2465326923945631
  0.7472023194674846  0.2471080402334541  0.2567643462892449
  0.0034911682567501  0.4972797451206290  0.2438640531824925
  0.2332610027026766  0.5032149434262776  0.2537792110054862
  0.4990751403996653  0.4837311854210362  0.2399841540280153
  0.7464524086773702  0.5001912516924533  0.2496736672575880
  0.0244660056911898  0.7400799017081965  0.2588360742741532
  0.2624603081366879  0.7425841164254200  0.2517066612296370
  0.5099385110343206  0.7364026154251671  0.2311991315014867
  0.7520672655950101  0.7489740559079302  0.2504861157342477
  0.0067697430669754  0.9923822765371366  0.5091150837833914
  0.2496496712621012  0.0171386444820985  0.5001582190071224
  0.5123674741946416  0.9981539125582433  0.4815953759582133
  0.7498444342059138  0.0009200690117622  0.5123097933039680
  0.0128223821733778  0.2394198366208479  0.5069384763872897
  0.2472853254441628  0.2486059144236975  0.4949734792330034
  0.4930881088149123  0.2659062727117867  0.4849128391640147
  0.7397223226334141  0.2642601850656847  0.5014693563627356
  0.0119079260987613  0.4978630134217890  0.4825579449283048
  0.2477733067642123  0.4958313754019846  0.4889334027954511
  0.4952183799696954  0.5178326934609254  0.4921039666972408
  0.7624602523264044  0.4926030614604577  0.4882659516353773
  0.9987646552380877  0.7606755335711619  0.4946200289584967
  0.2414599939830047  0.7587117248106121  0.5093344016849123
  0.5191746856214877  0.7150453002498456  0.5236361146768945
  0.7451447011675449  0.7601638956967629  0.4869915648535976
  0.0083424841813558  0.0148230827196036  0.7253328262614350
  0.2454576286586428  0.0143648005666605  0.7593552104986642
  0.5053731147631210  0.0074479405319958  0.7438044825396635
  0.7527859865798366  0.9985130506262254  0.7428135684150365
  0.9904300245973837  0.2475459683036254  0.7545320471149896
  0.2611834793227221  0.2447105307243909  0.7607283862236266
  0.4958187492073400  0.2456902937480038  0.7570868814759261
  0.7627190994480626  0.2275877299463054  0.7690591981471399
  0.9994133800897196  0.5066846865325143  0.7273331336091603
  0.2558623654189900  0.4848325723859994  0.7637593383853416
  0.5094860796879568  0.5026416073746957  0.7387374145703085
  0.7563268048620360  0.5039319957760185  0.7585352442966919
  0.0057509615430930  0.7518814692652043  0.7516081329030232
  0.2737776535648313  0.7356184734291051  0.7416107643177445
  0.4985010263864619  0.7323495108830158  0.7706174495807762
  0.7646179378676914  0.7259805243453881  0.7692924252990623
  0.1267781224702696  0.1118540866200124  0.1290947333668819
  0.3871337963835465  0.1444552958290681  0.0988178209165821
  0.6375555832437274  0.1160579695780534  0.1286477449953518
  0.8724225490390097  0.1183757027858108  0.1442213641330110
  0.1234691503917036  0.3853598241389700  0.1106005485193643
  0.3970355087126255  0.3676626618899879  0.1105719505938617
  0.6285849652206081  0.3668350470313293  0.1237066529704955
  0.8825257283306847  0.3784735728987133  0.1102739284853436
  0.1156194189258488  0.6080116378818035  0.1419809643053563
  0.3652272268117879  0.6106683466622486  0.1444944320979909
  0.6125535570921495  0.6179257994507349  0.1388146170569866
  0.8859641208935769  0.6028261584807334  0.1411415969329333
  0.1257832933533810  0.8810647359530625  0.1351457987798388
  0.3621995917303958  0.8811393582630224  0.1310267879880882
  0.6344497545887114  0.8620310881848756  0.1302258691913288
  0.8744157654416497  0.8662988810719623  0.1313863332953225
  0.1364510253243642  0.1202437790176629  0.3704378023865747
  0.3689326387086617  0.1404527267193905  0.3604778684401311
  0.6222607474819254  0.1196272103561795  0.3753212492928293
  0.8820607352365376  0.1386611596847946  0.3787449545479149
  0.1024059369159894  0.3814094303406001  0.3605777454967193
  0.3674682780672796  0.3969606911397712  0.3624623681875335
  0.6381918631410197  0.3782717878353468  0.3733502667297947
  0.8823359620032774  0.3734161485738547  0.3834214043543280
  0.1199499724109142  0.6349406476133337  0.3779232243697495
  0.3675944726297862  0.6377350788992501  0.3749186030939051
  0.6452569305559470  0.6150897891549647  0.3746029295442347
  0.8552104328818328  0.6298343792086267  0.3960442205541512
  0.1317844046160075  0.8734347045066320  0.3701208549789126
  0.3770878685703329  0.8815604638656672  0.3712316264785124
  0.6220890254635718  0.8816294091567342  0.3641069600220414
  0.8678358007911922  0.8785768662895015  0.3812762113115086
  0.1277198004925093  0.1005186778249318  0.6392591242218341
  0.3845011527846036  0.0947934157818931  0.6375019015232585
  0.6293243061028602  0.1289703328407123  0.6013006663335980
  0.8855769296171280  0.1363335027215475  0.6220268787549598
  0.1462833489670338  0.3539542468382956  0.6210976940970091
  0.3776136932884175  0.3636692246415340  0.6185608398543784
  0.6195771436605402  0.3723396413280614  0.6480871463426571
  0.8890058206902672  0.3754022115832940  0.6035264431038941
  0.1228275852761139  0.6078995397118134  0.6321544922897111
  0.3740134944093063  0.6210475098786327  0.6201707050658967
  0.6359755865936546  0.6289859061729117  0.6198322475904847
  0.8919603223111490  0.6230471107484529  0.6188912560176583
  0.1255024963338500  0.8811860693533905  0.6056184669429531
  0.3731524963959886  0.8751257604941107  0.6227760685148420
  0.6215807640611910  0.8761315094870965  0.6196650250440396
  0.8712057912741533  0.8814582119092063  0.6174929920607219
  0.1198667804072587  0.1278936481404546  0.8829017391937205
  0.3804148926935587  0.1257969856448833  0.8854860946933202
  0.6416506264655510  0.1066553861321155  0.8806835466936953
  0.8897568559482070  0.1067049216071217  0.8661665875239849
  0.1456238791373838  0.3794167895404367  0.8643557882210359
  0.3928053367867019  0.3604125874932461  0.8745766741722644
  0.6064249607119725  0.3854221460047808  0.8770862091082254
  0.8743638214709162  0.3747538999828483  0.8742226662182380
  0.1408224175093010  0.6199519557163868  0.8638039270000833
  0.3691289990011518  0.6273612786144451  0.8827419166172660
  0.6234410013691154  0.6284264314416621  0.8659219331842296
  0.8788828380839844  0.6141462477475135  0.8790523554294074
  0.1178619842502687  0.8959576585202242  0.8769314061466990
  0.3814810435106495  0.8789192607823622  0.8631049564983293
  0.6298767889888185  0.8888219333625760  0.8672441610087843
  0.8727833190096463  0.8649971879614082  0.8922983853019683
