generated by phonopy
   1.0
    15.9923497217343744   -0.0000000000015236   -0.0000000000010772
     7.9961748610645493   13.8497811253384029    0.0000000000003944
     7.9961748610645493    4.6165937083140518   13.0576988688087816
Na Cl
  64   64
Direct
  0.9855290912875861  0.0132072185214256  0.9962929967593492
  0.2595268772045487  0.0067349008068656  0.0014157044406043
  0.4920014140159329  0.9916777504204507  0.0014594716198800
  0.7497592418456643  0.9996260612432248  0.9945865393726697
  0.0166531734872467  0.2488050564364040  0.9795475442446595
  0.2306620489872284  0.2553864452914982  0.0112120746005322
  0.5076670230482534  0.2494544348134114  0.0004078078370433
  0.7530258361404923  0.2526140730303283  0.9860817148924678
  0.9868577595025033  0.4996194344406216  0.9983581890740998
  0.2502305313320555  0.4863795278492763  0.0096982127162302
  0.5172201431806037  0.4993534035651103  0.9989948826289429
  0.7473940837205357  0.4941676228452505  0.9935784870339471
  0.0036727195791862  0.7489359452297045  0.0014193038592706
  0.2537024022502574  0.7459500186545238  0.0051293026926753
  0.4880712499825137  0.7513115182334722  0.0067588207044357
  0.7471387427335912  0.7550051455488777  0.0027305629643323
  0.9949726091778257  0.9956508039458115  0.2430197285319986
  0.2530043260903896  0.0034216165217377  0.2446808919856292
  0.5013058704867090  0.9982151156651597  0.2456299060411497
  0.7741741693726872  0.9947774854883162  0.2496027571550042
  0.0004611226041946  0.2609624202240897  0.2371143590506500
  0.2507823852217412  0.2458639136300173  0.2479863823777785
  0.4732840393246547  0.2458453333317273  0.2665555501928482
  0.7524639311605348  0.2478721174019491  0.2562793940574887
  0.9982713565567206  0.5016621314631297  0.2496626634468666
  0.2561065363837057  0.4871266161349956  0.2610367302888946
  0.5036888565178195  0.4889217434454050  0.2577863107313134
  0.7490813813590488  0.5127284718062046  0.2583707320484545
  0.0090600371124017  0.7383732631167569  0.2420386650575310
  0.2460278973472239  0.7512522724722692  0.2409017080831231
  0.4788903425475722  0.7635682216045263  0.2598766576090170
  0.7526912803416133  0.7380997393135966  0.2412332659951848
  0.0115296014897995  0.0007221229941920  0.4853342386116416
  0.2569271078201251  0.9986348856379808  0.5021358952934949
  0.5152038586684707  0.9877640015214683  0.4929776401684924
  0.7467888991971134  0.9858276322478701  0.5282548188697003
  0.0094572714480118  0.2457599505876647  0.4980245850295418
  0.2625098461793448  0.2542799433350006  0.4937763707560692
  0.5034505012735145  0.2513981095670076  0.4985266202708982
  0.7489047646876004  0.2469549676104240  0.4956992665663976
  0.0048977730637555  0.5031014052183385  0.5075215425553271
  0.2480729876707889  0.5022474065764403  0.5087763718252407
  0.5021506880969187  0.4912471504303716  0.5009378001253647
  0.7355937980025333  0.5122481090390860  0.4904309207256802
  0.0008309318035484  0.7494318210883674  0.4985114729848066
  0.2489490898073270  0.7601444293744013  0.4837578504329886
  0.5185740712178238  0.7548337902471305  0.4945022371160536
  0.7625708664775517  0.7422920327426158  0.4949448721780743
  0.0107595530610545  0.0122434062208684  0.7473258722914126
  0.2494784348359110  0.0047895324457246  0.7294936783516135
  0.4908920304455485  0.9929696368286273  0.7606448645328912
  0.7317374630858888  0.0136747803519916  0.7497344669849904
  0.9990093829515482  0.2413658414595396  0.7605013431163289
  0.2417210447024276  0.2818604782818741  0.7447071756017579
  0.4862985270794236  0.2632734225630961  0.7412922637665588
  0.7388324548895817  0.2433071837530532  0.7608183179122662
  0.0216098555828959  0.4925325407908770  0.7580919353689500
  0.2627293188673314  0.5085118373681539  0.7474907043548379
  0.5046432777073920  0.5038572270358515  0.7553865225455064
  0.7554917284986633  0.4934586624716571  0.7487165762281160
  0.0053467667802857  0.7472874322107901  0.7520131163597013
  0.2371767450739669  0.7670508639322121  0.7406742364634137
  0.5058490523858642  0.7488858787679857  0.7383863493582241
  0.7486842621785701  0.7200622672027552  0.7718023029451022
  0.1282124774397616  0.1165792249244763  0.1258004215996885
  0.3590972221180988  0.1470211460617714  0.1148355977332643
  0.6138053789531205  0.1139047235466234  0.1404246688511403
  0.8724640472269037  0.1306172485537957  0.1252238831492196
  0.1250878163190924  0.3634588877389797  0.1290901877688463
  0.3664913558465419  0.3762387469954137  0.1193816294164164
  0.6130831573255255  0.3664841310982086  0.1383589092281812
  0.8746446772453174  0.3803038171583066  0.1286096207995885
  0.1280491009635432  0.6404165580616916  0.1173048945121912
  0.3897604200505034  0.6096522839016322  0.1174046015332318
  0.6383156142467236  0.6186161837483575  0.1208623232418510
  0.8668091197151278  0.6438907376477168  0.1215294334749384
  0.1162580937797212  0.8712843199158055  0.1283847313808350
  0.3770406813595967  0.8697259817208922  0.1387929312477949
  0.6431802350074005  0.8635207238733741  0.1132095934091611
  0.8947893775800122  0.8826973729976758  0.1072582350172418
  0.1275624866919339  0.1291975715588327  0.3766027974670308
  0.3715233543441208  0.1272593996913118  0.3757652908569721
  0.5960934294562217  0.1259723817744711  0.3806210386581946
  0.8693599199060897  0.1199555661656424  0.3778867734265128
  0.1380973146880534  0.3757115446019473  0.3766538243940276
  0.3939352653128579  0.3710372429110323  0.3707061775415333
  0.6262166976991544  0.3644232172786406  0.3816500806874154
  0.8615875796416661  0.3783109312669445  0.3749396940550493
  0.1393069074999453  0.6154052696845851  0.3689635970150508
  0.3787929104045488  0.6277186531022111  0.3673882336144147
  0.6099535575805336  0.6257956364239002  0.3849931342435959
  0.8711790984515101  0.6108121880647754  0.3857319318642699
  0.1130684423047299  0.8650655714194516  0.3757011226924997
  0.3754275522384687  0.8848561318508996  0.3750342058891138
  0.6202265719500841  0.8775288495153907  0.3930867853739573
  0.8609449208788194  0.8866222766717407  0.3714546104149769
  0.1289977462996285  0.1229034044102922  0.6209965429149659
  0.3668644032208663  0.1327657510001619  0.6259475286694548
  0.6194425002528209  0.1370934929093672  0.6092547331121587
  0.8649714125591982  0.1220067711776203  0.6253183650362707
  0.1174458252163243  0.3777994625592452  0.6372794208463730
  0.3625345922393010  0.3751009858430464  0.6338007610855709
  0.6372872420583386  0.3506247343778000  0.6255183100828281
  0.8522829468265471  0.3772357936382242  0.6357469246633615
  0.1387849065251325  0.6263232182669065  0.6348543509988906
  0.3853621557604290  0.6168368279704222  0.6302477626949525
  0.6507373853544307  0.6184525691498008  0.6152923908225353
  0.8961044815819430  0.6069912118228481  0.6095176560030103
  0.1278464422900411  0.8596991285226955  0.6413782921253818
  0.3725935770245206  0.8867001596897625  0.6243355716783093
  0.6326933544243128  0.8691612101289782  0.6274399008845697
  0.8714456778798749  0.8733645709614145  0.6183951413514097
  0.1257723860522241  0.1220627367246250  0.8761183375110171
  0.3801298258210572  0.1224227491059953  0.8857828854705672
  0.6202204169215584  0.1240805371277208  0.8942817689770982
  0.8701154610832347  0.1120948038216760  0.8736711340845467
  0.1261727810720345  0.3775148647457516  0.8758316032239446
  0.3801504444141753  0.3696665444108432  0.8715700908009950
  0.6177777321236915  0.3827337121372121  0.8711471162421683
  0.8828463302807891  0.3707439220296531  0.8704947834107899
  0.1151774348472426  0.6197359775299244  0.8862367754025108
  0.3804325586430815  0.6171282828049889  0.8790445899971017
  0.6208712736362378  0.6402535341652285  0.8760120488160758
  0.8723612431243990  0.6244483930418874  0.8612634555078769
  0.1230496353933722  0.8664780247618555  0.8798398382794241
  0.3793070788814378  0.8656591657896973  0.8831889480682747
  0.6383284365381774  0.8704995256002246  0.8664408930967145
  0.8830455824694454  0.8712962857406334  0.8792875847784687
