generated by phonopy
   1.0
    15.9923497217343744   -0.0000000000015236   -0.0000000000010772
     7.9961748610645493   13.8497811253384029    0.0000000000003944
     7.9961748610645493    4.6165937083140518   13.0576988688087816
Na Cl
  64   64
Direct
  0.0206215591629542  0.9906835502890349  0.9994294670354340
  0.2600635717283438  0.9981228170532530  0.9955080267837144
  0.4947924586139333  0.0049255707047369  0.9918300890663332
  0.7367631722491256  0.9965086194544733  0.0105242203155535
  0.0041673623619728  0.2492626968251997  0.9971385427558050
  0.2343581917486764  0.2639884240791870  0.0088360109387595
  0.5007506213715285  0.2565015928724248  0.0107859381222317
  0.7552177885763103  0.2394950580932290  0.0075500052512169
  0.0050579281322963  0.5041420439298688  0.0002553559522251
  0.2498938562736486  0.5071205391578484  0.0005200732744573
  0.4932005396598874  0.4966322368180298  0.0064902803639349
  0.7344159913116330  0.5116819214796858  0.0060353656539720
  0.9955274518556606  0.7511411146210238  0.9974663929799175
  0.2802808668925007  0.7227383329702771  0.9977367146995811
  0.4918983619199840  0.7660607750377572  0.9823101221072977
  0.7564542729037326  0.7501979688726736  0.9823547581511224
  0.9738922155200639  0.9994309094365443  0.2645201082509305
  0.2447952929600224  0.0005293169812623  0.2580383507763279
  0.4912299448061910  0.0147438300394797  0.2658455638980035
  0.7540145122786185  0.9985028005520172  0.2361982919507270
  0.0039847641869592  0.2492815689066726  0.2393495448351434
  0.2462284384582235  0.2463204380159602  0.2618798099139787
  0.4944678591201468  0.2412472685578748  0.2615855399993592
  0.7523390309649459  0.2544626323201432  0.2611833705454571
  0.9947795067185448  0.4919746507642271  0.2561404071124732
  0.2589653325780396  0.4864967708796429  0.2458298861076116
  0.4935314110230336  0.5008521168349165  0.2444652538131877
  0.7450062695566810  0.4932975427167859  0.2680869474212609
  0.9993607947422583  0.7425959464642290  0.2603320858491676
  0.2526021140819244  0.7508251661550416  0.2554811170882425
  0.5053312806946275  0.7652100330638123  0.2437819539703753
  0.7510165330671837  0.7410668110169035  0.2622359408160600
  0.0067942082243311  0.0196045637196638  0.4786436398219104
  0.2866367104762559  0.9629673957200116  0.5128249953166677
  0.5057685766456793  0.9820445713765862  0.5070517320464190
  0.7447835019763552  0.9875229918379453  0.5040302582254754
  0.9989086223201111  0.2516981773535297  0.4952900566136362
  0.2377759565559494  0.2424314839787364  0.4996112069376043
  0.5091429872784964  0.2560078750523977  0.4943365403248523
  0.7523932554664851  0.2619667385397779  0.4954814963877985
  0.9837257274641757  0.5121535195963863  0.4967635436134867
  0.2242990135333443  0.5002519590764416  0.5054737952889569
  0.4992059011009261  0.4771832364838510  0.5097147689294478
  0.7335709692885531  0.5145367308174856  0.4963921722766445
  0.9900515911626799  0.7530576414739043  0.4999363103993006
  0.2500244324816065  0.7632056490829510  0.4936895076955863
  0.5042581991008227  0.7510863660575433  0.4802529749561594
  0.7352101800515587  0.7608190956497185  0.5055947356420356
  0.9955843964505410  0.0008326202255065  0.7617028223057409
  0.2419699073644202  0.9927704618534675  0.7621384784925251
  0.4957064895767975  0.0012511698790598  0.7374952489547960
  0.7529034357906544  0.0063241363708177  0.7692888419995360
  0.0071626374117367  0.2562954449961103  0.7458139455600283
  0.2554143095227532  0.2336853680190638  0.7506285982507145
  0.5074805787176402  0.2547473848407588  0.7368537093867615
  0.7473330777918861  0.2617790839375162  0.7550336691071939
  0.9859284620914717  0.5063818939435312  0.7513255303942423
  0.2486212454770168  0.5163220381993219  0.7362593153133938
  0.4931297249413040  0.4888912107567052  0.7520857305266226
  0.7591053656364732  0.5017656696568460  0.7507447312480090
  0.0203394839024989  0.7400680092829416  0.7449488817076545
  0.2504454845045341  0.7446049016379708  0.7621160429292605
  0.5044148241949429  0.7322633098126043  0.7653251512656830
  0.7424764197472143  0.7667828598733899  0.7323622283035691
  0.1072672637862460  0.1533524360339237  0.1278024349374857
  0.3621627585063155  0.1237479214524999  0.1304215104982994
  0.6219319296479253  0.1239387531488952  0.1322740073112263
  0.8704688674650847  0.1266403521736603  0.1328136025783761
  0.1258970171001277  0.3832047998889209  0.1163728999882343
  0.3510196878179240  0.3853649266458766  0.1478954580769413
  0.6278547185990950  0.3781184860668377  0.1394449993258343
  0.8751130756492371  0.3642801383821553  0.1291473325521323
  0.1299337383137295  0.6232597367813176  0.1316513981776387
  0.3779549011159262  0.6286212451907003  0.1133074334626751
  0.6405578254542330  0.6180519734114007  0.1226104068148725
  0.8640540561213722  0.6290136767697551  0.1266820521498544
  0.1207809106379619  0.8706139044357000  0.1327662117303965
  0.3734678765052451  0.8723115868376502  0.1436693009235183
  0.6189190131677137  0.8685476923623145  0.1357370626014232
  0.8897966938610226  0.8671377575888101  0.1135898374064499
  0.1169339699480393  0.1321315384939034  0.3821479059797717
  0.3903988273165319  0.1159178913176430  0.3831790723121974
  0.6186837836734722  0.1193076039518002  0.3850666044368107
  0.8892501255187321  0.1444569738976793  0.3459788799740094
  0.1160443576182960  0.3929422791385178  0.3521123224759718
  0.3776961114704153  0.3786621174976977  0.3590281168055067
  0.6360287266779618  0.3747681352154699  0.3735414083711542
  0.8763032614436914  0.3791799890990317  0.3847126988322058
  0.1242615453909854  0.6250573397301172  0.3735629506771883
  0.3612436569631363  0.6256115776670188  0.3897333967374736
  0.6063585703067960  0.6334482340445599  0.3778411896341994
  0.8811309516855772  0.6392801507356870  0.3613805723434211
  0.1265175504713609  0.8752723064052895  0.3706480211037780
  0.3669077346895959  0.8651170689679595  0.3742825988998480
  0.6211126571250138  0.8750599593241015  0.3743622603413747
  0.8723592585442621  0.8609250041053294  0.3903721312895129
  0.1205860337478986  0.1249958350432501  0.6280213097765769
  0.3770660193419948  0.1377101390210612  0.6263221958715649
  0.6066544072363571  0.1232088201092161  0.6240683626648158
  0.8677578975957898  0.1424161271220575  0.6199534914969601
  0.1191379559803376  0.3711586925023179  0.6491917520564832
  0.3814814090065446  0.3698634390579813  0.6259051404613781
  0.6244332865238345  0.3581822579321720  0.6241118841341649
  0.8666695391115464  0.3861744027189539  0.6174250274816975
  0.1295876217860220  0.6165700649983834  0.6385159946887422
  0.3800269664497897  0.6127845353261717  0.6333034824175693
  0.6260613185379205  0.6337562090372219  0.6249847396391974
  0.8802644255847110  0.6231008292809861  0.6378708626917569
  0.1154728034790093  0.8629051024443426  0.6461402461343421
  0.3662542723286525  0.8795878310023455  0.6312907259569395
  0.6244827769160498  0.8707812087529757  0.6111035228077272
  0.8617617339273242  0.8747731987920008  0.6356345323055355
  0.1271049596459802  0.1369046018450624  0.8717721483823545
  0.3881905210312298  0.1221084352684284  0.8762705489995174
  0.6288940134461452  0.1189430807113803  0.8644091987839804
  0.8786218715096831  0.1165309722545091  0.8812155308728888
  0.1388497243406735  0.3807402418654953  0.8637109826010130
  0.3831483230744579  0.3777857191107469  0.8640203115030610
  0.6255996178046757  0.3750660142221856  0.8900689579026351
  0.8713723205489652  0.3758472801418251  0.8745120225761783
  0.1257209572694510  0.6279159561731156  0.8857685671077850
  0.3676437824343944  0.6370665672800830  0.8751044030584544
  0.6190504204805728  0.6201588527500467  0.8691449673181350
  0.8654871173628340  0.6314675655593843  0.8666233013013643
  0.1210919442582220  0.8718640028364801  0.8642221437017273
  0.3816410037427982  0.8632907542175480  0.8837043058517936
  0.6104960287614039  0.8765387281536841  0.8872083391391153
  0.8801125904327884  0.8676926951881572  0.8676897477282008
