generated by phonopy
   1.0
    15.9923497217343744   -0.0000000000015236   -0.0000000000010772
     7.9961748610645493   13.8497811253384029    0.0000000000003944
     7.9961748610645493    4.6165937083140518   13.0576988688087816
Na Cl
  64   64
Direct
  0.9922175146769551  0.9849291839288714  0.0098315445527114
  0.2359609949385695  0.9941096084453043  0.0033099665209612
  0.4868465797977125  0.9967820263857450  0.0147163532411682
  0.7484645684343154  0.9919515306667348  0.0184134008432667
  0.0053860577550009  0.2544906997049670  0.9825258333151442
  0.2495079176283478  0.2443854480913976  0.0073400016461012
  0.4998278988770299  0.2528921422261550  0.0001887369827678
  0.7653168547730981  0.2455439161345513  0.9862074898469598
  0.0029945804098785  0.5054066877987879  0.0093420926553419
  0.2517252337477766  0.4835218261119299  0.0071539023005859
  0.4923434895396043  0.5132332334096422  0.9862212045264754
  0.7716449849912035  0.4822744691020460  0.9923340544679586
  0.9921909265922121  0.7397968569841897  0.0089389583352773
  0.2485328317328497  0.7411593296109590  0.9978767475344065
  0.4867711199608551  0.7586251502525087  0.9961163865957992
  0.7616366590460898  0.7350673985204565  0.9883630864407702
  0.0027565636160754  0.9940783546940767  0.2394525167669909
  0.2582891706865732  0.9959125517483641  0.2394187618572342
  0.4758487603968717  0.9802509791811361  0.2719433137696395
  0.7538842576939875  0.9998337191088297  0.2568831440802670
  0.9863876448261060  0.2645339388465028  0.2481702950832284
  0.2503524723972681  0.2633844004174333  0.2298928967187099
  0.5039790946900281  0.2388110741905670  0.2587768870671954
  0.7449694384947971  0.2579799294683091  0.2502283538217741
  0.9930571741558001  0.5004021418918796  0.2467704488827309
  0.2538839882111903  0.4970137777614096  0.2501346954641833
  0.4989839361318728  0.5189801340228631  0.2483289987344659
  0.7668881551326486  0.4859118620391965  0.2585946865569755
  0.0013013517005580  0.7547156729208175  0.2520122161127540
  0.2573278387418956  0.7672435673041205  0.2595655273571940
  0.4975293807371803  0.7437737935292066  0.2524849671525705
  0.7549959660818216  0.7573668508418128  0.2504657933833623
  0.0003148954490488  0.9949707562206539  0.4907123004620276
  0.2687592658307607  0.9835945837416447  0.5117747724496050
  0.5038612872061916  0.9892820224412782  0.5067154958743576
  0.7451559505922273  0.9881902654800098  0.5045641073751315
  0.9947705792601094  0.2601358749143901  0.4972394734051596
  0.2499146809062908  0.2488764095635297  0.5007198069890761
  0.4939562366789396  0.2480694885741844  0.5089752266900034
  0.7290514734372373  0.2626580968572688  0.5062914369109521
  0.9588698979914426  0.5120841470744819  0.5084541470390240
  0.2731180477560779  0.5022297949026505  0.4950406837873533
  0.4908571113419193  0.5120985636055012  0.5013655751929026
  0.7641408644427512  0.4942731219296050  0.4958165485874864
  0.0077490269507619  0.7358998909093942  0.4913005704026249
  0.2509550667939828  0.7431660890321155  0.5063308258174483
  0.4896749363194830  0.7520920344048613  0.4898138411710246
  0.7619372762042792  0.7266498120661202  0.5120541944947609
  0.9994139238392095  0.9925145601788816  0.7465662444598966
  0.2454694947387203  0.9910487247402091  0.7466530564526538
  0.4947996257065920  0.0087990494966063  0.7516779995407984
  0.7408157212087434  0.9934668402499205  0.7503598384117186
  0.0198648184111927  0.2428904753998661  0.7489040547588025
  0.2449476612429416  0.2669235819801823  0.7562329321285562
  0.5007660318757896  0.2565275183819987  0.7400787417236815
  0.7383116228902155  0.2755292785711834  0.7438267765968311
  0.9967577408892333  0.4985730892710372  0.7630129952944588
  0.2693436977292704  0.4983714013452194  0.7423741583225892
  0.4956189607842127  0.4802723573782999  0.7559501595842277
  0.7583979486266034  0.5126606331487529  0.7514161517824555
  0.9964377966017621  0.7491599339600311  0.7482233023823314
  0.2428068148791306  0.7561543645225532  0.7584358242819675
  0.5019312409682452  0.7407345888443349  0.7558009311355239
  0.7539607772045405  0.7316232691137243  0.7570119323157758
  0.1107699948986793  0.1363838443559432  0.1218687528251810
  0.3670461153213934  0.1209048816239543  0.1366655833789619
  0.5980560158176632  0.1337020188882733  0.1354669286055737
  0.8808601159939494  0.1250921833336675  0.1155142044807630
  0.1162344585234795  0.3825554871127357  0.1287117140242270
  0.3693329070709934  0.3768162920777093  0.1320242028342897
  0.6400285547306559  0.3606855293386122  0.1324541434300989
  0.8785818494629398  0.3781677063287134  0.1219727392644434
  0.1266191639639334  0.6439406657485238  0.0965613966647472
  0.3625275840213061  0.6202184882996205  0.1364782190374192
  0.6179742665758845  0.6231233315203333  0.1251834833549871
  0.8884834019127466  0.6190681705455821  0.1328563476899358
  0.1363895089851176  0.8812037410307116  0.1157345477308918
  0.3694760829351152  0.8829023267862233  0.1243020806660089
  0.6205546210756417  0.8849747551983174  0.1226882666926492
  0.8739057628049647  0.8743013247924848  0.1275349256514835
  0.1273856865788847  0.1436746927204445  0.3544534769262465
  0.3739572976023787  0.1240160228689525  0.3647468825405781
  0.6467345999149119  0.1121293935278467  0.3593805822432350
  0.8671314024196929  0.1164565646383958  0.3824407876511203
  0.1242125558744500  0.3731346161663335  0.3801739986483530
  0.3661576750090082  0.3670027145697035  0.3819579363284162
  0.6230267278089803  0.3717804733976638  0.3755414523563493
  0.8901397464749593  0.3679790018556527  0.3728713611733390
  0.1402345881842429  0.6137968790525659  0.3837265297265050
  0.3774471082994297  0.6333985551090846  0.3799849887278570
  0.6418478103760152  0.6187940069604410  0.3689853216243023
  0.8760480259992613  0.6241570590507410  0.3612320023545343
  0.1250954427546779  0.8791526334931643  0.3668016240880880
  0.3693914405502777  0.8789693729493064  0.3743896741518575
  0.6278307459477167  0.8981624884518353  0.3729189584319224
  0.8780755060896899  0.8534549968379200  0.3913784598785763
  0.1248352035123346  0.1324430536225808  0.6234701768842583
  0.3775955020243175  0.1042737660672295  0.6330066419990712
  0.6333269370846754  0.1222477697589132  0.6155945913550023
  0.8788067573017667  0.1330834760463548  0.6106681599037384
  0.1190324128497827  0.3835185630338028  0.6170945257300541
  0.3787878852520095  0.3802326178852154  0.6133073250507468
  0.6243607251229151  0.3855237133299956  0.6243742074785197
  0.8823548304087826  0.3859264723823342  0.6151584689969258
  0.1262183583076595  0.6189982730555865  0.6304499606412298
  0.3764528311043384  0.6282973433572879  0.6301145580998382
  0.6180766247862446  0.6213632267614667  0.6383281738759218
  0.8768411334008497  0.6197948180594031  0.6375366264344779
  0.1213775162388771  0.8926148960945972  0.6203999703324282
  0.3671322104735568  0.8778063458069314  0.6406070245615955
  0.6111136745512126  0.8772047507953984  0.6339606954974879
  0.8797410310235052  0.8713356617781963  0.6300655678906221
  0.1454158565605262  0.1136174785726780  0.8763838698484521
  0.3824205344692042  0.1136117584408286  0.8811491639433348
  0.6347223782879574  0.1198758617425867  0.8699273682163677
  0.8896967679515541  0.1050404254804211  0.8771016145858866
  0.1206435721983575  0.3711418210331728  0.8836535376869518
  0.3760547641365257  0.3770503314366302  0.8614276025790921
  0.6248360625716682  0.3876692017084800  0.8765618681126238
  0.8739104297620832  0.3791316672929542  0.8628105359481878
  0.1332342661363335  0.6089529697255428  0.8784622578919361
  0.3646495710614707  0.6263110033965841  0.8782879309406523
  0.6416285729940965  0.6117478123939641  0.8757436777265676
  0.8714478921659568  0.6077711266010728  0.8782157131905058
  0.1323412389522542  0.8685143963378525  0.8725108575617182
  0.3701702913617910  0.8859810394982877  0.8817014125942819
  0.6262239468189832  0.8643159850397812  0.8825207916600766
  0.8644490616675518  0.8716668303661852  0.8833862018600322
