generated by phonopy
   1.0
    15.9923497217343744   -0.0000000000015236   -0.0000000000010772
     7.9961748610645493   13.8497811253384029    0.0000000000003944
     7.9961748610645493    4.6165937083140518   13.0576988688087816
Na Cl
  64   64
Direct
  0.0048779348745812  0.0048671277934783  0.9998756279814498
  0.2405175113993393  0.9856033547880046  0.0113887175729570
  0.5157455096627663  0.0012232635951019  0.9916420194766697
  0.7624354424747378  0.9917354781314960  0.9926108061561434
  0.9963581637304130  0.2379021888554893  0.0031106138172128
  0.2400386782622926  0.2483847897347907  0.9975360704674082
  0.5044585304357546  0.2674556050568732  0.0008728443339683
  0.7572952539189406  0.2458667460038463  0.9986086065063745
  0.9959947376487196  0.5048124406930281  0.9952888329853189
  0.2426208414505915  0.5084735004007571  0.0138883611329667
  0.5050892252976381  0.4906686090243440  0.0085963857713031
  0.7695812802936499  0.4722975602817136  0.0188035856437934
  0.9786645986000572  0.7511579210187426  0.0110576857440415
  0.2510329996415352  0.7610158873349969  0.9861084675328351
  0.5347415266019163  0.7371887488756841  0.9815134929993661
  0.7530213445287548  0.7535190835603164  0.9901303423780140
  0.0136116573743500  0.0050646874077759  0.2491631402953306
  0.2517954151187785  0.0088430303194100  0.2397124383591926
  0.4928959567075208  0.9935675224301660  0.2546639131080835
  0.7604430846960187  0.0021093196253741  0.2389378419786209
  0.0081616952830027  0.2378209091479069  0.2605832043927934
  0.2657341677555897  0.2451879762570353  0.2531054214564382
  0.4917337306944050  0.2486720216482221  0.2554961053226225
  0.7226512783829817  0.2562769389680484  0.2674327282223261
  0.0139373131971564  0.4972640205179146  0.2325183334920637
  0.2563385226498555  0.5014959799650456  0.2375176525650729
  0.5040033154325193  0.4946747750584507  0.2727407143140356
  0.7483806754737063  0.4889994478905128  0.2571980379377711
  0.9983190638377784  0.7661119915680259  0.2399342366115161
  0.2383852951506988  0.7513602994553528  0.2575953511078739
  0.5081468198674257  0.7526877308478612  0.2357219208083894
  0.7435076938950570  0.7699137024374881  0.2339720666974006
  0.9860532409244719  0.9940395553882839  0.4995489637267720
  0.2492171080305289  0.9857058397575857  0.5163852647241379
  0.4912519990974284  0.0098808528568327  0.4838020151702175
  0.7405199600199939  0.9990025486115753  0.5021069194953595
  0.9899486601286843  0.2517413160051698  0.5092802522090871
  0.2605508987046292  0.2438080376227013  0.5169060014510678
  0.5057673068485280  0.2346281983444720  0.5048869027504419
  0.7376065032484551  0.2549909179705397  0.5008909071876934
  0.0099128143118597  0.4915686741997256  0.5034944148669291
  0.2327984481633650  0.4937768887100882  0.5105329195169150
  0.5083046718795937  0.4981872801875630  0.4888045420951284
  0.7745436966655295  0.4983685425352766  0.4855440362340940
  0.9860119256451159  0.7826948099387153  0.4910832706747328
  0.2606699315055826  0.7519701179211147  0.4958931407589401
  0.5145400606461734  0.7398331278152558  0.4936512205966394
  0.7313467172504493  0.7446197192690549  0.5166528413396539
  0.9917088368729093  0.0156204261103519  0.7521746024886641
  0.2422576340208076  0.9896433939291110  0.7569202774480625
  0.5008484896918746  0.9897819455356839  0.7636664727275667
  0.7613560416674745  0.0050007396184401  0.7508691129665741
  0.9951391431900610  0.2548724615965224  0.7413100615816507
  0.2570584929220404  0.2260114303997525  0.7514359694829481
  0.4949847830619437  0.2347308232300659  0.7692910672970114
  0.7465689415853918  0.2528890151448155  0.7332776266730727
  0.9986661165407758  0.4808419582891167  0.7544195700246831
  0.2584314333438600  0.5016981024575440  0.7524009076816141
  0.4963154204156477  0.5134990787742932  0.7415298428015192
  0.7575767121547359  0.4988595475011546  0.7503669455268557
  0.0013055403338135  0.7580618573806276  0.7276022028857541
  0.2583465061524212  0.7415524677896952  0.7466904094972531
  0.4969285359643666  0.7428672844229728  0.7545009505798326
  0.7657332313227437  0.7460699389444060  0.7461855884972812
  0.1306815569565800  0.1178679365644083  0.1198980576250811
  0.3762882263948433  0.1230967650181097  0.1276482603372032
  0.6198166130480640  0.1316316608993091  0.1267165511077935
  0.8736630973702616  0.1216085272017479  0.1221394810895735
  0.1243319279750461  0.3791691162055736  0.1158080264829413
  0.3685373124181842  0.3783849060252100  0.1209067182117789
  0.6321403398162972  0.3785056709792227  0.1225442515738718
  0.8700603991316448  0.3713879876810329  0.1384139847701100
  0.1105598748784713  0.6233103722823257  0.1332008225979555
  0.3847941858792394  0.6296450369074169  0.1176709759175227
  0.6189938063065117  0.6305449280484789  0.1194008873690047
  0.8674232312921319  0.6308978100072399  0.1242771536254546
  0.1180483893597160  0.8793414599671325  0.1279917983379284
  0.3735953306191446  0.8718729056431581  0.1301390261014644
  0.6152550860222575  0.8755427467133283  0.1307244282612622
  0.8675250265686117  0.8802902176108012  0.1169305156002221
  0.1137763361372210  0.1246331612268103  0.3822109149924945
  0.3830901778771436  0.1242509133825357  0.3643684975225654
  0.6325194771566663  0.1155160184197520  0.3782353908113751
  0.8777711809383421  0.1287450099777094  0.3884407533869728
  0.1366427386544860  0.3881211880057716  0.3593887679144085
  0.3725329278761210  0.3721582457140731  0.3659472816048315
  0.6309495482819707  0.3733671150273514  0.3737013872890206
  0.8884548311753944  0.3794323962130478  0.3659480108176976
  0.1329946047772081  0.6392268433920737  0.3561775392689046
  0.3750019304362152  0.6174289783742324  0.3812378197947561
  0.6223773858154829  0.6345779883809475  0.3723780911790295
  0.8673293869713969  0.6225300606806079  0.3718067514728030
  0.1338690993397430  0.8839163648104891  0.3720610011240947
  0.3799373716666311  0.8640775485447862  0.3852099170177657
  0.6109924531700414  0.8847693005873027  0.3870427929834361
  0.8760096189493460  0.8717606826401411  0.3780389834885398
  0.1131087877438428  0.1191782308588252  0.6311029878795392
  0.3668746788129396  0.1228725819621151  0.6366719032237921
  0.6345110433180654  0.1137548059044095  0.6153930495861853
  0.8645519328709269  0.1377130523273592  0.6180525573756516
  0.1403939438622471  0.3809648189579742  0.6052926879572605
  0.3689293876959888  0.3844464029821546  0.6181714789845077
  0.6090557641133407  0.3700714043610863  0.6445028334518436
  0.8954008776642206  0.3790940999271608  0.6130136645252836
  0.1169322793260323  0.6367410421721762  0.6354168594123775
  0.3848113391072453  0.6148287793561654  0.6263496941292356
  0.6284799203325711  0.6219407824920149  0.6245632030629654
  0.8842871544310248  0.6201981579797331  0.6162906016405238
  0.1347557557312397  0.8709814851898368  0.6402243989254200
  0.3704349739432677  0.8781926327074896  0.6090808141320813
  0.6107901915828740  0.8855077783184063  0.6256842328986312
  0.8764124098407416  0.8777935419634673  0.6280710140780480
  0.1457667587237161  0.1150045322252542  0.8654602495758211
  0.3585880570058429  0.1369705475316845  0.8785825081174994
  0.6240563876305907  0.1383158189311916  0.8717221282598189
  0.8712231567673413  0.1228939375362142  0.8889845533251729
  0.1230979996327882  0.3614176297202084  0.8658684672741422
  0.3948811027905148  0.3780221217256748  0.8715796618624968
  0.6341706122950278  0.3847159491671578  0.8728209202413441
  0.8768611834577533  0.3756703148063996  0.8820330481064608
  0.1361331136186917  0.6188536767026757  0.8502311404374113
  0.3826289768600009  0.6176065973007088  0.8681044866893052
  0.6306653751142424  0.6106826997297834  0.8771596824396823
  0.8749805475615124  0.6247922361258692  0.8727606902828139
  0.1126348661714151  0.8931021976685617  0.8715875941921100
  0.3919566037610940  0.8694043657683683  0.8714613325251233
  0.6330054803694830  0.8715035719330035  0.8666220825230564
  0.8768942471327577  0.8628196424889495  0.8836940643481045
