generated by phonopy
   1.0
    15.9923497217343744   -0.0000000000015236   -0.0000000000010772
     7.9961748610645493   13.8497811253384029    0.0000000000003944
     7.9961748610645493    4.6165937083140518   13.0576988688087816
Na Cl
  64   64
Direct
  0.0081407726188379  0.9945345493862162  0.0030545331825921
  0.2459231866004519  0.9980394438672602  0.0084611812614063
  0.4888184881101936  0.0102473871455479  0.9982802958168586
  0.7361052559987221  0.9844254186946876  0.0030574140869377
  0.9853894467184432  0.2486780752630199  0.0053496470839804
  0.2362220323126073  0.2392094011205232  0.9989575513380516
  0.5161316314918513  0.2538084128927611  0.9924330984644664
  0.7425951930946010  0.2468224387547009  0.0119856758737222
  0.9996338606331485  0.5006234728012892  0.0074733802708888
  0.2384843826823981  0.5140804758736746  0.0006482177428165
  0.5015652616337047  0.5028251082592894  0.9846092549529888
  0.7402824146799543  0.5096077805316183  0.9943276431290724
  0.9945779210313337  0.7550114913917298  0.9852961027188017
  0.2656377095226603  0.7456622101603928  0.9953627157144513
  0.5006691678315658  0.7444021111114023  0.0058068373032594
  0.7373653529050752  0.7603714957196073  0.0046036991260477
  0.9963105180660933  0.0004009695242276  0.2641200545413988
  0.2608038776488892  0.9958248250178170  0.2243942323039914
  0.5071391428655416  0.9941705184506728  0.2379247439205200
  0.7443997320567509  0.9877932060701773  0.2671531966240657
  0.9939529006993495  0.2698852102092675  0.2469151365834063
  0.2541872218987550  0.2536392611258747  0.2448848810110805
  0.4969599657087228  0.2720056568209522  0.2414527157027871
  0.7382118795492175  0.2581846442275339  0.2570305620497669
  0.0151202763032514  0.4881827433084746  0.2401089007809558
  0.2423376462839027  0.5075432901067823  0.2491512908715665
  0.5009703419948376  0.5074598245259034  0.2515014595597075
  0.7449580411242978  0.4931971872807149  0.2562975056965820
  0.0028234591063851  0.7537343014233480  0.2546695459636424
  0.2452504031212790  0.7410027399988732  0.2635299467333235
  0.5365074482070633  0.7401088177763518  0.2441887001194222
  0.7606043178458982  0.7435056816174497  0.2517970269939332
  0.0009081154066808  0.9990386978963077  0.4899566116923380
  0.2431353925991864  0.9993203041181343  0.5113038995037962
  0.4794855696722987  0.0146292720026472  0.4996889020934421
  0.7685708075721532  0.0025230709553047  0.4838971106901825
  0.0077776352063545  0.2317177025127733  0.4800787375873667
  0.2473408640460758  0.2728818052090553  0.4976080402965933
  0.5170348192879289  0.2378420676123448  0.4761675090973811
  0.7598305555776210  0.2486769065487207  0.4962853240477741
  0.0045888497132569  0.5051282061655684  0.5016606711778875
  0.2468588028244822  0.4981516207320335  0.4954812772815856
  0.5003074039071572  0.5014918161021502  0.4976574176505127
  0.7447091618168050  0.4894342365470633  0.5093667985926210
  0.0093024782446209  0.7350455653307446  0.5072554603126535
  0.2654938675792222  0.7535303801920779  0.4825803565268282
  0.5041746287978420  0.7613072360915181  0.5090682971892637
  0.7488614888867562  0.7470872288941629  0.5093751474522779
  0.9976872323953601  0.0079230844107934  0.7280546982979471
  0.2391587636011437  0.0013380460396653  0.7566246158666364
  0.4866766867483041  0.0127806528701589  0.7520360213751435
  0.7467757362184440  0.0208380179491265  0.7384700388021509
  0.9914375552987256  0.2506649091736814  0.7461015275998493
  0.2479551933435340  0.2492214064500956  0.7544249107386235
  0.4934455573105933  0.2661215932193796  0.7500134331294597
  0.7360946583524787  0.2541482770978197  0.7476860814790571
  0.0152365691058131  0.5062661046523542  0.7331397107237929
  0.2441919724101845  0.5051415874095792  0.7523130195578196
  0.5027053808002702  0.4891178053549369  0.7496239150622959
  0.7496494436859943  0.4935342274896719  0.7618617952750315
  0.9945678377717300  0.7509020533238019  0.7575944261829494
  0.2509358233270250  0.7399134510082004  0.7532699699370813
  0.5153071331857021  0.7553284578256555  0.7294767090318917
  0.7330217089752754  0.7516082509991295  0.7447818902497910
  0.1159775608393940  0.1271715557865829  0.1410683401400389
  0.3734367255890410  0.1306124186714256  0.1356413896452952
  0.6257194666829518  0.1228508958939271  0.1184223624454258
  0.8778831846374884  0.1388240649037740  0.1068355403323668
  0.1211006749501319  0.3738471374642819  0.1355323067042266
  0.3877933659847101  0.3678082317339690  0.1169601571331863
  0.6380659606429548  0.3639537718260787  0.1293548766329489
  0.8552593332945393  0.3823618703491806  0.1322220363445690
  0.1231809925667270  0.6269258988044032  0.1076975190094986
  0.3656064782190863  0.6269331835504847  0.1224361055400979
  0.6186984405139165  0.6425101250993632  0.1223302703921651
  0.8606496489446889  0.6290682189844825  0.1233332858556401
  0.1202622177690817  0.8783118374235540  0.1276251660288255
  0.3699198618514480  0.8609326916429352  0.1276379067127567
  0.6313531604883923  0.8711865194340647  0.1122976436801549
  0.8814845517961255  0.8752039188730394  0.1240161664581164
  0.1238354509266752  0.1299543785073946  0.3722455011083730
  0.3629521510643986  0.1402873794042746  0.3627701279695668
  0.6272169035794658  0.1189331795082570  0.3754866230592780
  0.8699737898796771  0.1343694301694797  0.3805650518854811
  0.1282917455171207  0.3751803054480427  0.3714328932233856
  0.3599620282767976  0.3863691363456266  0.3681367574968205
  0.6282692204717790  0.3727485803216346  0.3848082679411187
  0.8734590075809204  0.3855091571106766  0.3624585418170547
  0.1103732550623164  0.6448717469379740  0.3597335977288462
  0.3827225623226093  0.6274468058616604  0.3706630412911487
  0.6127515596421906  0.6324454101880228  0.3655648499689462
  0.8872034216604133  0.6317505692704329  0.3725185014585464
  0.1099338595346614  0.8807528761985234  0.3726828512315357
  0.3618548724581912  0.8718771158752763  0.3850250335976123
  0.6340870539953686  0.8564947718056491  0.3804796951802157
  0.8846099701810205  0.8709814350492355  0.3829118831266753
  0.1304556750787944  0.1141302643376797  0.6248784258115913
  0.3591555064120023  0.1428254562993034  0.6328105128384183
  0.6180806109148775  0.1299557036928234  0.6181736209759752
  0.8758557960933523  0.1278983880852594  0.6197985936749967
  0.1485938867776622  0.3864035078650704  0.6055915533964619
  0.3813534987973978  0.3870795246999423  0.6150031614919901
  0.6359224526939641  0.3702724535258052  0.6364596144093482
  0.8854448120058176  0.3754879146059561  0.6227233550691260
  0.1217153697504939  0.6167627676482961  0.6401069671246939
  0.3743534459507353  0.6297004018997159  0.6232785344083195
  0.6265989938102642  0.6320868942775200  0.6260234973296750
  0.8720590827968947  0.6198953400253072  0.6399026117810429
  0.1188641540257387  0.8663446001946891  0.6400116958632894
  0.3901770991847835  0.8691234634331203  0.6285938254669327
  0.6274766856455771  0.8717001656657357  0.6228911998429788
  0.8747883722243293  0.8666731532450043  0.6248723705952847
  0.1316897929893380  0.1199057839651199  0.8832521048635738
  0.3666937411178422  0.1304592076854046  0.8674343611781342
  0.6140173192794748  0.1275189841270626  0.8740982673106754
  0.8767850837030208  0.1225585698502824  0.8740936761368371
  0.1186333073327183  0.3899167359789207  0.8579257010126309
  0.3646293878856339  0.3640686907428335  0.8743461849921180
  0.6122859973189938  0.3758781922476318  0.8908616430987365
  0.8751397291562677  0.3793734828713484  0.8690837453904618
  0.1395314030912720  0.6218691114506196  0.8661243936014934
  0.3649490237761039  0.6314681031303855  0.8832967888368790
  0.6301687796808929  0.6286609199766344  0.8688355351394610
  0.8778368274415678  0.6279551911329027  0.8685409348537545
  0.1216863072591480  0.8734949092596735  0.8893845613875786
  0.3737330763319919  0.8788304691222251  0.8748519750306852
  0.6100701065233820  0.8970549219612738  0.8768622488938157
  0.8675655581402125  0.8687612654322736  0.8745102588496199
