generated by phonopy
   1.0
    15.9923497217343744   -0.0000000000015236   -0.0000000000010772
     7.9961748610645493   13.8497811253384029    0.0000000000003944
     7.9961748610645493    4.6165937083140518   13.0576988688087816
Na Cl
  64   64
Direct
  0.9879738074360586  0.0181402341119888  0.9983676159192061
  0.2557192795572831  0.9894531284136220  0.0036911323049372
  0.5070279388247290  0.0122492506043742  0.9886801867663085
  0.7636235571443643  0.9865074756053934  0.0033392622769336
  0.0038375720854210  0.2486383253248073  0.9923042611582950
  0.2626130740960079  0.2418154388604810  0.9982637334698110
  0.5008947636226049  0.2408490250299294  0.0138944264950613
  0.7563837861317376  0.2279999762314887  0.0061107684324579
  0.0142994665369689  0.5119069240354617  0.9887753633099233
  0.2557762757402758  0.4981669526660396  0.0112452406623443
  0.5284556010295610  0.4736984505136000  0.0067661522037378
  0.7544634760504715  0.5147646410761438  0.9990366345588536
  0.9962101472462518  0.7408943832491878  0.0261968044231339
  0.2297431007407728  0.7464255671056138  0.0171864243094964
  0.5098071474505095  0.7519030489772350  0.9795177982938921
  0.7700767528723471  0.7353877493118257  0.9935356232398592
  0.9858697506010122  0.0037696247628085  0.2548288025157119
  0.2508463744293569  0.0052471143320293  0.2437340627157580
  0.5044470391153855  0.9887131368047269  0.2552979528530384
  0.7378474530820759  0.0044656013611538  0.2560318354192339
  0.0082512984578378  0.2492679635889009  0.2446931653570905
  0.2473888481542447  0.2452646745543486  0.2547181615811172
  0.5100025260977199  0.2329602391865770  0.2473590757268091
  0.7567644205977431  0.2604008553099814  0.2247256099098970
  0.9965779778884338  0.4970764305749826  0.2595959106559810
  0.2316013688561938  0.5248824960066252  0.2622434748744846
  0.5003101745895963  0.5006855959194699  0.2395212042823996
  0.7390771428725591  0.5034703820874233  0.2563250680028765
  0.0028422070256232  0.7305838096024017  0.2720614234302133
  0.2549952596592088  0.7423985479523344  0.2580017691681888
  0.5018788295383989  0.7503658478232623  0.2520808149015588
  0.7414497992954378  0.7634685791795804  0.2424933024611897
  0.9978745628994871  0.0000670584589168  0.5123793720795453
  0.2499586080782982  0.0069174199987672  0.5063879571918900
  0.4891471407249435  0.0112024961521781  0.4892903850164623
  0.7425886633996124  0.0200655292237044  0.4964983183956352
  0.9772391486626117  0.2596487376377211  0.5019789353625337
  0.2610086084146570  0.2478909234330805  0.4978272920097826
  0.5128394787414747  0.2285672127294256  0.4962059659456767
  0.7438727899647037  0.2500631890130414  0.5092902614830143
  0.9862997284631139  0.5108451557886782  0.4964021584417133
  0.2572190548689439  0.5059574441478623  0.4984628061569606
  0.4993065407816799  0.5149604809663726  0.5001656589540106
  0.7344211083942807  0.5025105187701069  0.5164785800061183
  0.0064733727437336  0.7405361781710381  0.5034852457854463
  0.2391473056273594  0.7493495128395999  0.5093856771034596
  0.4929062547577772  0.7514439889909343  0.5028049657854239
  0.7259844718220400  0.7547693642785274  0.5048819779959488
  0.0107851953350205  0.0005373102116942  0.7457433097681505
  0.2351148600815876  0.0042769204061403  0.7543995069708781
  0.5079424113896505  0.9925203412229366  0.7556759669881394
  0.7465156073840549  0.0152111098909695  0.7479326077789885
  0.9923670869295087  0.2269109746501760  0.7652829094137072
  0.2478932370501163  0.2605102516544286  0.7524924646932949
  0.4962179383257462  0.2551380906525519  0.7475754665062658
  0.7792646787538261  0.2500923406078941  0.7500772057508751
  0.9831366887548799  0.4754553139431275  0.7636520094351534
  0.2661845793685703  0.4953569376435314  0.7390817719369774
  0.4841357454240489  0.5204804192098215  0.7356700029065172
  0.7418649134216397  0.4956732890691136  0.7735475569667938
  0.0150053765373729  0.7456568782339357  0.7477584478676671
  0.2502758051607029  0.7818402486196430  0.7366181519489687
  0.4990344701197258  0.7328809542417247  0.7466718927399004
  0.7692827149362493  0.7445734881633457  0.7376840694397141
  0.1171712059153377  0.1379911117760544  0.1352203496688001
  0.3732155527814109  0.1341964492904334  0.1257744536619745
  0.6231574469147058  0.1360623282529362  0.1154089519042967
  0.8700365702575213  0.1220542154291731  0.1294966377821482
  0.1284133599015078  0.3779076836893161  0.1200122849974412
  0.3654586237428970  0.3768412547690643  0.1178147518168212
  0.6292026460259244  0.3931112047520165  0.1117588774789609
  0.8901087512969778  0.3708437663823830  0.1276018817142813
  0.1198128676908203  0.6168126735787750  0.1437754624484138
  0.3833470987220450  0.6203921320223811  0.1188975262212366
  0.6345057478781997  0.6241414557350387  0.1240472303270486
  0.8890276405161344  0.6258704997747379  0.1271637461752262
  0.1265938106703880  0.8866555929104444  0.1183038379665809
  0.3708000877150204  0.8788504060469475  0.1365324375545254
  0.6308971493745847  0.8686527089410112  0.1234642197914469
  0.8698422190479190  0.8814423431275527  0.1157817354491519
  0.1236823484780088  0.1174142262475117  0.3798548230902705
  0.3696209759880233  0.1403949845864175  0.3627533343912859
  0.6158750799777838  0.1191100788537165  0.3866021795185842
  0.8815825767762433  0.1400716085067450  0.3663297491878290
  0.1081749441423867  0.3902375356408663  0.3759324389415374
  0.3731181152199152  0.3864337807651493  0.3726294533641986
  0.6396169610006148  0.3736749699125684  0.3715553744523192
  0.8774105280478315  0.3828673408303647  0.3740152523030599
  0.1372216410686331  0.6201826065030482  0.3773116481469286
  0.3884901491417502  0.6183366194546341  0.3734691426915228
  0.6275380085075333  0.6122684028755391  0.3953245867388683
  0.8890891479766800  0.6140409934985236  0.3840184465316914
  0.1368592007965692  0.8687187125095424  0.3784888430644041
  0.3830189108002633  0.8953631913916880  0.3583756082326848
  0.6245915114296333  0.8813008666219414  0.3605284637164763
  0.8645224269216132  0.8787586430963159  0.3814236538163410
  0.1208923222507494  0.1289097995445400  0.6184156477529403
  0.3978034909185544  0.1125297746312280  0.6074294414167567
  0.6224180034349526  0.1167330823160344  0.6159445011241657
  0.8746615010349381  0.1328041524503964  0.5995710510178551
  0.1102710420997735  0.3686836701289357  0.6332406383050934
  0.3785092988002458  0.3770115398160102  0.6216615148654173
  0.6204648020039382  0.3873934196531047  0.6316046709247767
  0.8735803103268490  0.3915007586062449  0.5989679178018896
  0.1344575484001825  0.6172568656018531  0.6334164099879688
  0.3806918510823429  0.6158644380934264  0.6228715343471289
  0.6334762628733724  0.6343372286530022  0.6019273580321702
  0.8699187120698955  0.6347368739428363  0.6145877612181224
  0.1262383272898991  0.8718188556694769  0.6263745572638101
  0.3817036360275932  0.8772971264036633  0.6320338178311520
  0.6145305846645094  0.8731776617864664  0.6255905484455043
  0.8613163820540657  0.8900182056210539  0.6298278741672521
  0.1282143548783645  0.1340131077978961  0.8562538315957885
  0.3584357465300256  0.1089049949765196  0.9025013011915208
  0.6236568304096370  0.1327356018923718  0.8688293043065290
  0.8701359783998869  0.1486843810065079  0.8424376100422611
  0.1231802212341252  0.3778796491141526  0.8778787660644304
  0.3952463878834393  0.3751815130678649  0.8736086849623762
  0.6065436628462862  0.3847669881408581  0.8751722950478460
  0.8710468444990218  0.3884695211174197  0.8667834274312183
  0.1257789147140366  0.6294931710972336  0.8787737961149639
  0.3632830578362061  0.6199035250127171  0.8897418631384844
  0.6309694642215093  0.6151254883573589  0.8716453055703710
  0.8855813752637077  0.6241054334111735  0.8624681299962298
  0.1262956632943267  0.8715977166477034  0.8787604195094857
  0.3786286531794936  0.8737906233848043  0.8767529571171402
  0.6185952342499899  0.8701895428482727  0.8808046045881249
  0.8748570573134189  0.8826357452940877  0.8788245431680078
