generated by phonopy
   1.0
    15.9923497217343744   -0.0000000000015236   -0.0000000000010772
     7.9961748610645493   13.8497811253384029    0.0000000000003944
     7.9961748610645493    4.6165937083140518   13.0576988688087816
Na Cl
  64   64
Direct
  0.0099888940804291  0.0014105378832822  0.9883499503385953
  0.2536997869595340  0.9908049110851620  0.0016439142599559
  0.5113250830327584  0.0016343224048096  0.9985159140223909
  0.7383591146167889  0.9894961916766818  0.0164302727920507
  0.0060206213652729  0.2422477915761539  0.9967912896494735
  0.2450195541204760  0.2712974305285584  0.0016513263549621
  0.4911028483978170  0.2621577328354963  0.9950115945846334
  0.7419657823910607  0.2481966839289808  0.0092224760689664
  0.9907126939049462  0.5077641781282732  0.9882712695257524
  0.2662379655533103  0.4947084319205515  0.9839361652314659
  0.5040344550900858  0.4959420154686781  0.9926427494455191
  0.7498744224525633  0.5169702939504066  0.9975065867023314
  0.9914392741600846  0.7574102274129922  0.9895065618250102
  0.2191636378663610  0.7575501324087559  0.0091555978915795
  0.4931522950757936  0.7572677349613649  0.0121895610519576
  0.7610593869851617  0.7379672971417272  0.9905938878186470
  0.0117935280663319  0.9983544878203811  0.2334214653371748
  0.2536647961198964  0.9972902543396545  0.2569118606883041
  0.5104955504723528  0.9968529964644124  0.2471895642622050
  0.7540938752574804  0.0025106066636604  0.2505894756310190
  0.0214244161212332  0.2467154431359016  0.2317003757637097
  0.2354897264331094  0.2338932295074264  0.2593560361410867
  0.4857194511924960  0.2764935102358348  0.2504332926997601
  0.7470048140119238  0.2436228423015322  0.2548093157568974
  0.9863563572036173  0.5136538616727704  0.2590233028154868
  0.2566477467598371  0.4953696134729564  0.2508000886609510
  0.4813703559476788  0.5013988281584297  0.2611967691186141
  0.7339240049442082  0.5015672573549455  0.2564869475530226
  0.0082288437298767  0.7324806878579722  0.2495460165271065
  0.2582508055829004  0.7370265585816521  0.2557280731844111
  0.5109971774293873  0.7298106874482042  0.2501824795996143
  0.7316913772544617  0.7678607221916633  0.2468519096056476
  0.0021532471612588  0.0116754970693668  0.5012354206818042
  0.2322235817062644  0.0097937329251025  0.5109491688273565
  0.5117659521331946  0.9944087847384940  0.4934887082631848
  0.7401122111996221  0.9924825399674317  0.4970343198073630
  0.9842544718037418  0.2443315269002303  0.5023194085865775
  0.2292095336206067  0.2633429881554473  0.5177349624195517
  0.4886896900950004  0.2671026451785636  0.4914303417631436
  0.7480305948719590  0.2546395015237538  0.4981435969341206
  0.9893417726326035  0.5073399436392336  0.5017588119318556
  0.2533280196360495  0.5080607742942540  0.4904159530325085
  0.4879051200106759  0.4868525519572356  0.5063566084563516
  0.7545175318661770  0.5066958839360547  0.4974252888826009
  0.0061824873434826  0.7511374379677245  0.5012399829695714
  0.2482313955693042  0.7487788807433622  0.4971293203242416
  0.5209260662968126  0.7325538627903961  0.5004584728322445
  0.7421152535428848  0.7678724105294633  0.4898418354132655
  0.9890436432028612  0.9911430475200349  0.7816231866111376
  0.2354519088601982  0.0218288064111690  0.7302430170352490
  0.4926375243785140  0.0169059260798899  0.7420376254441954
  0.7496327072214664  0.0039608101002199  0.7565901237557677
  0.0031789960224373  0.2424344554746146  0.7457921801536566
  0.2608108881135960  0.2442996504329246  0.7455189664031627
  0.4985743437923046  0.2772849625388085  0.7395531002128800
  0.7545149819429144  0.2409168604568198  0.7433390923844839
  0.0174561431740973  0.5020927084530946  0.7221131312149222
  0.2768304414451922  0.4988844660218651  0.7253035892761440
  0.5010488816233394  0.4975442573792060  0.7616273790154326
  0.7534351250280802  0.4887928252694818  0.7405897356417926
  0.0005530626933530  0.7430353528390352  0.7363163091758649
  0.2456299566394702  0.7439893652528424  0.7495388330600158
  0.4892087667187661  0.7528269649299903  0.7636969410441280
  0.7346379263582665  0.7556152509368481  0.7630222559554900
  0.1367406274281215  0.1170697547723875  0.1299383396457036
  0.3809393709603105  0.1243519184348956  0.1295916693961329
  0.6177609349961635  0.1374533757819081  0.1215410837631064
  0.8704933860151755  0.1316523601468463  0.1248028413183106
  0.1231746633979695  0.3879393801277185  0.1158963570985781
  0.3620004749747150  0.3870729411080569  0.1258560786432277
  0.6315600979606963  0.3701060500397146  0.1215905515553983
  0.8727376067483857  0.3698965883712791  0.1242413347522897
  0.1135127533614963  0.6393645787023879  0.1196058463959189
  0.3721830050860911  0.6248870359411319  0.1293410666650502
  0.6309332756153226  0.6201413037686589  0.1190952142312975
  0.8747017008178077  0.6275614305182902  0.1338239652323498
  0.1262067105655872  0.8888638243587822  0.1185588376572386
  0.3716713968204969  0.8754003733920280  0.1410008714029401
  0.6367453517445033  0.8770236255592440  0.1298594882267224
  0.8621505787056752  0.8642135055149653  0.1500635094895466
  0.1245144456320677  0.1216144487569693  0.3730953139700891
  0.3724338095419735  0.1367089226510895  0.3619997516659511
  0.6271472199488253  0.1221617782162557  0.3789224742304848
  0.8937261005136015  0.1238950803555952  0.3707176167117352
  0.1363803167060354  0.3696403645236044  0.3779714200336514
  0.3649307749321595  0.3677898034123801  0.3793055260967159
  0.6394289205801595  0.3771595238296332  0.3577057685866538
  0.8703785260596841  0.3705363708251305  0.3653769041971158
  0.1251317840894940  0.6288810748663893  0.3695583956360852
  0.3735171792139600  0.6226969440044119  0.3848731302272259
  0.6157746298647411  0.6241947701781508  0.3718945682729589
  0.8852550211719904  0.6119198565621147  0.3843771308199777
  0.1432171589608610  0.8729567960974562  0.3616996617425517
  0.3724397374051306  0.8792829676452115  0.3725598657444903
  0.6165436195948760  0.8776129867042037  0.3796766968714905
  0.8992306811781331  0.8765769575659789  0.3620426622483495
  0.1052863822381349  0.1335331306437694  0.6290588912422083
  0.3715800043046786  0.1174781879979686  0.6232722947312573
  0.6240947466533169  0.1172295965340183  0.6202070772678386
  0.8749305893998733  0.1387244305207228  0.6179668303580614
  0.1140085079048330  0.3761367079664409  0.6317128534762512
  0.3766498020757479  0.3535979563400523  0.6460633695242247
  0.6245554947062647  0.3783705519634906  0.6142499793202001
  0.8792060322998811  0.3685461777376331  0.6289598081603488
  0.1287265029588689  0.6401615633311932  0.6076325574408884
  0.3723186411205748  0.6327187344140177  0.6349683718179967
  0.6292827660795687  0.6218286342633002  0.6275741913107330
  0.8733665025692019  0.6260293052735186  0.6246364071476890
  0.1226353815540425  0.8867675290052732  0.6206063515526659
  0.3893286156923531  0.8672062187126199  0.6189459070412991
  0.6060777755469045  0.8741507891890745  0.6289099555057108
  0.8800371986115952  0.8662275324407815  0.6209549429757244
  0.1084160220826363  0.1396460720439850  0.8918960332595531
  0.3945945056608700  0.1078095752422756  0.8834412688431270
  0.6285329218733877  0.1287506822376726  0.8677592146683150
  0.8694897279535341  0.1325236765381235  0.8729691142120153
  0.1318557166878262  0.3700512636607981  0.8777124202281338
  0.3939174696083957  0.3747985103827072  0.8571990888927007
  0.6185927653221046  0.3757387759308990  0.8823303084785330
  0.8618630298139256  0.3733797457488937  0.8924498048128008
  0.1265265313312074  0.6255246160897538  0.8769911841986656
  0.3554523276287643  0.6389390415260415  0.8807818312361130
  0.6205234944091302  0.6254916589443125  0.8795487066048338
  0.8673035960130051  0.6184606078381304  0.8971933208057058
  0.1191786296903497  0.8915899487854806  0.8731763528850167
  0.3793286685755093  0.8828704340236511  0.8727908143915045
  0.6243750562365913  0.8535762254091521  0.8796468827353281
  0.8685656948658489  0.8811737430575555  0.8858104551945196
