generated by phonopy
   1.0
    15.9923497217343744   -0.0000000000015236   -0.0000000000010772
     7.9961748610645493   13.8497811253384029    0.0000000000003944
     7.9961748610645493    4.6165937083140518   13.0576988688087816
Na Cl
  64   64
Direct
  0.0114878117116930  0.9973277373581183  0.9980478527970041
  0.2476783236405143  0.9966665859658337  0.0002066813501019
  0.5003925028973200  0.9924232489159301  0.0110950114003652
  0.7451639943880788  0.9976192549069864  0.0042069847892012
  0.9950268472844597  0.2551942651697227  0.9972651322262299
  0.2626567011377536  0.2544821285276908  0.9859646425628740
  0.4983328640225577  0.2485523797071218  0.0059993540643407
  0.7662504756908253  0.2473003180226459  0.0011667494281860
  0.9867313044440089  0.5039240082312646  0.0216323792298745
  0.2513071558655879  0.4997573716008982  0.9942611392581361
  0.5113713597722308  0.4808134797298369  0.0008866550151034
  0.7392572462463004  0.5075446420924166  0.9995812932336429
  0.9945258613786195  0.7358033039552733  0.0120510710900462
  0.2497034830480420  0.7529458794685775  0.9966405163307905
  0.5121361308989866  0.7611865799606076  0.9839190852174573
  0.7293056802650463  0.7748110236449516  0.0162617892437022
  0.0055093819680954  0.0050924395016786  0.2503322242888019
  0.2580470030940176  0.9910270808562430  0.2419800056454888
  0.5072381659817548  0.0011226886222849  0.2373081345312789
  0.7649106772902579  0.9981972590356538  0.2375268002494651
  0.9958513571916041  0.2476261786848281  0.2658741344352329
  0.2484289830385353  0.2380832324218550  0.2539789477156991
  0.4990271849921066  0.2684020213697240  0.2260385399851269
  0.7361027145412834  0.2523731866518627  0.2502009060969010
  0.9904042117391383  0.5014307562118817  0.2573094152175947
  0.2646086451225493  0.5160422093934304  0.2063117777012740
  0.5060441139242585  0.4925184237293032  0.2437641698494235
  0.7562286209306256  0.5017929034393677  0.2378753297636045
  0.0072562245434867  0.7551768659050032  0.2509687327588045
  0.2584987122970489  0.7526116829693196  0.2375939391860662
  0.4839233665908763  0.7529076154910832  0.2538660495306366
  0.7608458355502208  0.7394304156647934  0.2561292155779403
  0.9989155540934189  0.9973517611714695  0.4975344759561794
  0.2566297627734264  0.9854230390567459  0.5029972414726140
  0.5122957661387619  0.9941205110206980  0.5083757652148744
  0.7600006128562684  0.9941463384452357  0.4986416098076448
  0.9948388964088224  0.2723829492892134  0.4870025543995914
  0.2461581755761664  0.2459359819125067  0.4984208655760278
  0.5221208675615518  0.2454927227945108  0.5001497448318382
  0.7605312887902060  0.2243296995233547  0.5048551625907842
  0.0026922325988317  0.5153810973382953  0.4772739247198186
  0.2602643888688189  0.5067459494481312  0.4991501506919064
  0.5020926742817207  0.4943040502689778  0.5133776713388458
  0.7479223312628939  0.5045621919690528  0.5000207455006505
  0.0047418916201876  0.7357597272632426  0.5137928239770453
  0.2567928169198297  0.7499127808758816  0.4890083063084755
  0.4976864853531809  0.7558078750813667  0.5051736956655425
  0.7500723876046337  0.7362363597258885  0.5065450135524064
  0.9846877705118599  0.0074004859765698  0.7612675621077883
  0.2532098862363668  0.9995751252458331  0.7381945195864141
  0.5024408595127463  0.9967545876270281  0.7571666543962980
  0.7428712232895357  0.0087351215653824  0.7411154690174365
  0.0111949042874123  0.2511827331831517  0.7585357618210028
  0.2413386952306521  0.2368126578488569  0.7680443472393331
  0.4908898002565491  0.2636727764937179  0.7451932490410891
  0.7481901025350470  0.2450511927273692  0.7503221498963941
  0.9964188658876618  0.4936438380007288  0.7704725085385411
  0.2466887796257394  0.5058669133527125  0.7470155337319574
  0.5125821621416491  0.5127123137900746  0.7398945030692096
  0.7549569109087038  0.4947606274490197  0.7543668030862382
  0.0102521099246353  0.7571887828149475  0.7361657786428435
  0.2586949046531000  0.7421383615517301  0.7498567511110549
  0.4885658757906938  0.7510171725741842  0.7395416370779360
  0.7375136872729823  0.7418169350814710  0.7718873846264236
  0.1256531869227074  0.1329040567786144  0.1240197586017713
  0.3720629421647885  0.1267938874523681  0.1301921753346035
  0.6364405631486409  0.1142987148620242  0.1249257858700489
  0.8722381514589705  0.1255914019101882  0.1275820215049004
  0.1357503944065953  0.3699651994602484  0.1153400749533092
  0.3601549096783336  0.3790351805313387  0.1277533274722107
  0.6267357746886445  0.3591193662132670  0.1374214324841886
  0.8829483494825503  0.3746938773151789  0.1054806468526407
  0.1237859729408406  0.6328519881517525  0.1220862534004331
  0.3739817945387295  0.6076547415225659  0.1426917539896501
  0.6110957980843867  0.6192431232335451  0.1397486805370065
  0.8690889324271392  0.6179444734986279  0.1358978785734942
  0.1301342250068305  0.8744042553250115  0.1262579546716893
  0.3801911916495339  0.8738411651362283  0.1207028324629552
  0.6301293287320385  0.8798339116864420  0.1207797686996343
  0.8870615071850089  0.8601687425333724  0.1229882068364150
  0.1116913962932116  0.1304175480682697  0.3829906204278348
  0.3733799851278882  0.1245668933021974  0.3860008733289058
  0.6096421968769858  0.1310432299503114  0.3820273832979114
  0.8817261477439945  0.1136141646809808  0.3904471740262768
  0.0969592112706084  0.3806211709928081  0.3827446685684754
  0.3701301121768318  0.3691361103288251  0.3770640220365133
  0.6082952863539591  0.3820722386312632  0.3674426558318261
  0.8695002522983383  0.3740593228776584  0.3768968986299246
  0.1303487944714704  0.6288096444496939  0.3783143035686832
  0.3640471611779558  0.6373222475594291  0.3807943676491480
  0.6145325927241577  0.6227671938264737  0.3880957135957445
  0.8821641836671439  0.6094413858551873  0.3772098466359647
  0.1347160081936407  0.8774059982196722  0.3791260704053437
  0.3691616979861244  0.8905181265517891  0.3636580844270741
  0.6253266685734289  0.8829525571318740  0.3692788862907970
  0.8773164723721399  0.8757307538377749  0.3683734007656639
  0.1309657781476962  0.1079364438993225  0.6286489532177629
  0.3861331828667507  0.1141439874766305  0.6197351139262706
  0.6262305973378579  0.1228157163751037  0.6290554206340322
  0.8814192008394326  0.1282465105159573  0.6174934508143562
  0.1295050277953172  0.3797110868839125  0.6196782176345350
  0.3771431154157857  0.3745337183663774  0.6134384304485752
  0.6310638341008552  0.3739106951211389  0.6248694310985701
  0.8755091317405718  0.3736866589653508  0.6179100122370337
  0.1086235388555628  0.6513365922106886  0.6284417922875224
  0.3689522191694069  0.6389208241752311  0.6086471470188860
  0.6143228397156575  0.6164334794803976  0.6332541338783988
  0.8717657876303898  0.6310921402477667  0.6278362223708233
  0.1295797469753782  0.8649383809668751  0.6249320856640211
  0.3676622770681945  0.8662080946225925  0.6322036205814885
  0.6060600165978388  0.8871041527357220  0.6224614185841747
  0.8797432180545481  0.8718937150058481  0.6289916809819718
  0.1106851093844483  0.1460970808573636  0.8858680961050238
  0.3981429374914082  0.1033698115200585  0.8660256611466325
  0.6244096094714997  0.1290378026363735  0.8587134757189718
  0.8784628219057020  0.1331123189663188  0.8676661236278473
  0.1317082677902934  0.3689411286268344  0.8763931877110401
  0.3739193180196386  0.3740711136892690  0.8875905847629554
  0.6195783278544422  0.3829870663885779  0.8668506599444318
  0.8827126358656974  0.3783278996448297  0.8847170809564657
  0.1333075921970848  0.6123201720414388  0.8632520304026063
  0.4025283187815050  0.6139397286772228  0.8629856976713199
  0.6177042946932776  0.6364399965719276  0.8690920891148156
  0.8750649077984417  0.6176588991526810  0.8698406438090357
  0.1244253663955940  0.8712579114225238  0.8817356878812956
  0.3778891762224087  0.8690064996493870  0.8740779039843619
  0.6293221155784441  0.8658784680638890  0.8662971423033341
  0.8731461795234289  0.8723475014894495  0.8804880622987221
