generated by phonopy
   1.0
    15.9923497217343744   -0.0000000000015236   -0.0000000000010772
     7.9961748610645493   13.8497811253384029    0.0000000000003944
     7.9961748610645493    4.6165937083140518   13.0576988688087816
Na Cl
  64   64
Direct
  0.0016528685189721  0.9941537535638978  0.9986527037714430
  0.2626647754702277  0.9990341988266582  0.9887796153398690
  0.4916564958147555  0.9951478695535666  0.0018933452863275
  0.7359366688619359  0.0147754869055058  0.0069389197350146
  0.0144892286028904  0.2484618813746401  0.9994155547181170
  0.2528546389499457  0.2479851894914396  0.0082019888820697
  0.4994010218763471  0.2495318094981686  0.0055583274929823
  0.7694690771443383  0.2342397088764643  0.9897291897138831
  0.9826764695149071  0.4963440537775962  0.0057352785835164
  0.2596809799748712  0.4968378405748285  0.0000042168451046
  0.4944187091764940  0.5055223883017209  0.0075030703039236
  0.7327920201077924  0.4964855261518806  0.9920046391179508
  0.9872730726125374  0.7625419540508799  0.0010311549919637
  0.2625042422424538  0.7353551506742949  0.0021493962873972
  0.4924942236104786  0.7427121452230374  0.0190242769532678
  0.7344184826053267  0.7599331008301405  0.0040973575061335
  0.9908903835646534  0.0125906615975479  0.2364502252955799
  0.2485349150933645  0.0147512323260468  0.2218947507912829
  0.4964870620010083  0.0001061807862217  0.2622691924662336
  0.7650735004778091  0.9907074757414691  0.2524448167949294
  0.9826731837681251  0.2621696694419789  0.2607988699535079
  0.2332403190093870  0.2500372141955461  0.2709750172261997
  0.5003618853410237  0.2500511989308971  0.2514310635578972
  0.7671992371455398  0.2347063986924047  0.2443958661849601
  0.0038499929013498  0.5045788547383093  0.2404780411144301
  0.2331171185167194  0.4911035127847461  0.2668016920583764
  0.5115682821792819  0.4921737104138166  0.2584556351353920
  0.7543909849466893  0.4847311747642035  0.2437207491603756
  0.9858754520340614  0.7482355092930838  0.2642996177888161
  0.2673739296692209  0.7255224688350832  0.2472598297417610
  0.4958148431571744  0.7434322683099419  0.2423601435132050
  0.7580626490513569  0.7644877664225143  0.2440029402744155
  0.0029416073552581  0.0152271189263526  0.4910730177592638
  0.2569534034162962  0.9939613007984500  0.4848871923253174
  0.4922301629913853  0.0094392068081224  0.4968535046874674
  0.7539636583628055  0.9971670595193078  0.5028151077213165
  0.9971765780902827  0.2574685723869358  0.5048775405245488
  0.2426146115046431  0.2557159501969169  0.5099759115823146
  0.4832434654155270  0.2547524745721987  0.4849636330053643
  0.7478752443875782  0.2344075909253759  0.5265182469316964
  0.0163637488618911  0.4998434610199396  0.4911878231383804
  0.2582261166852834  0.4985927012589755  0.5063449256446066
  0.4949040379694078  0.5146735364715488  0.4928932283587658
  0.7302556515212560  0.5093561681470891  0.5103930795412004
  0.0123092639270621  0.7457721425386125  0.4900459773565969
  0.2656854141044239  0.7292370760697615  0.5013370197762882
  0.4819255777097615  0.7528292580385176  0.5087127391586341
  0.7488895809901914  0.7527858961293959  0.4906433036873280
  0.9995270929999927  0.0029166125647337  0.7410583307959258
  0.2538127864436417  0.9760288829341373  0.7450004926325893
  0.4992569488594242  0.9881260993056585  0.7728323303816890
  0.7502642265756075  0.9809335680737812  0.7520587786080138
  0.9963215411534563  0.2424188577496638  0.7571714467741173
  0.2624525822369446  0.2456138232390734  0.7405948989025254
  0.5024328405763649  0.2510848897850801  0.7362757973500295
  0.7419523483301089  0.2527389309390429  0.7478786142166339
  0.0017668626765883  0.5034400553899961  0.7482367330511269
  0.2478626208203136  0.5059881368861830  0.7516256497029833
  0.4897313000756900  0.5215125522576043  0.7472096361601366
  0.7463470620169755  0.4860548228283689  0.7756508830346736
  0.9948554245778968  0.7468747759953148  0.7499936391529936
  0.2305073560915690  0.7803133164407083  0.7357987791596539
  0.5094264547475480  0.7439547465392187  0.7360377064966513
  0.7625670931665569  0.7600754597266348  0.7405546250123429
  0.1395238241111120  0.1127488381769973  0.1233028015625856
  0.3718032129412748  0.1246076194506911  0.1297624213214310
  0.6171311070539421  0.1208710544162148  0.1329191621317751
  0.8819217103693110  0.1245957941960286  0.1276147784543290
  0.1150978011918578  0.3624427966874593  0.1294082227193246
  0.3879474935038051  0.3762311447726425  0.1262303311697139
  0.6149703538722519  0.3860090140688756  0.1233098106790415
  0.8853953457728558  0.3794473420330066  0.1257147900844478
  0.1204741678886707  0.6190874591007884  0.1279792057218688
  0.3784235336436875  0.6243622562309680  0.1260015575370109
  0.6400589130221666  0.6057945582702894  0.1288771988415810
  0.8701475662770446  0.6250553485279444  0.1210189145722515
  0.1173251691025352  0.8995314328297450  0.1179460711855600
  0.3800485455873639  0.8721099861361236  0.1168084603160511
  0.6269111722028652  0.8727639814879924  0.1368681379434258
  0.8740257262669149  0.8801550487220926  0.1384105167295830
  0.1330065894002800  0.1294164496470884  0.3714474926012976
  0.3815635862492738  0.1332872257312809  0.3584325461774236
  0.6506558095088958  0.1233039796847397  0.3744809467248778
  0.8826245286097607  0.1174041821902527  0.3624186279685937
  0.1270008664526088  0.3689024328768078  0.3696857322929330
  0.3904237551821425  0.3685337202550372  0.3781239447755649
  0.6331535984103641  0.3650549403865743  0.3672441387558106
  0.8798664744458807  0.3804547872072599  0.3608463697138201
  0.1139758408282650  0.6114685182976366  0.3865310407524177
  0.3795160402681376  0.6122325400790576  0.3850548639955670
  0.6114522045857789  0.6227937368053922  0.3819768787452336
  0.8888984622248255  0.6239943586959564  0.3765402643256153
  0.1128024644260567  0.8742548172114035  0.3872879899534205
  0.3682106441482927  0.8743919120063948  0.3942531139926833
  0.6320964053377737  0.8713340770541330  0.3686066381881906
  0.8700801370068009  0.8726408016805942  0.3848114712283044
  0.1281776890908987  0.1417254322761838  0.6370528136691461
  0.3837143303319768  0.1245420710325831  0.6232471256182798
  0.6309550354827702  0.1203443415497189  0.6210965092687490
  0.8706829947105753  0.1178403357267191  0.6330669264488584
  0.1306345117400980  0.3680984446394676  0.6255653671361855
  0.3699873757845856  0.3711678236309544  0.6260819496891984
  0.6292263675844549  0.3640871385500009  0.6345580383753060
  0.8722586750372525  0.3785634717704988  0.6226441935349701
  0.1287628819014497  0.6188756490544276  0.6213548674468273
  0.3775298314299887  0.6354729658402829  0.6165680260532531
  0.6208675608575427  0.6322998709856734  0.6233394634811389
  0.8777286675914061  0.6236462830341386  0.6268334184532561
  0.1144874580336948  0.8924766650997508  0.6275049277856294
  0.3782076339751445  0.8627545820852682  0.6269053116808557
  0.6227219313980422  0.8744823092652474  0.6207205367014337
  0.8895420466100895  0.8733204342697973  0.6260153814130183
  0.1422113670265800  0.1175925440729226  0.8876419160992358
  0.3693940277270038  0.1372896044029258  0.8783789016720381
  0.6271989215715237  0.1118872501229231  0.8755108433539132
  0.8662212263183326  0.1229833398696090  0.8758801405280655
  0.1320106816627791  0.3667910394849356  0.8776304559603383
  0.3752234431287765  0.3781609321225325  0.8660066976180153
  0.6366545720118847  0.3589237414713171  0.8755193407093830
  0.8642445482415284  0.3938402370464157  0.8625174962236585
  0.1308305948715253  0.6252621237662647  0.8644714454896707
  0.3748328651291682  0.6178165129673348  0.8762536420166520
  0.6169041875788270  0.6195510003603825  0.8678341604049311
  0.8745451827607631  0.6144596843320319  0.8884198264612782
  0.1369526526153468  0.8733435067787256  0.8697564830585147
  0.3745634203076041  0.8707307089112070  0.8879747635426526
  0.6197616377049552  0.8856866502215626  0.8706369063134763
  0.8714375768947457  0.8716998373366546  0.8786918760678232
