generated by phonopy
   1.0
    15.9923497217343744   -0.0000000000015236   -0.0000000000010772
     7.9961748610645493   13.8497811253384029    0.0000000000003944
     7.9961748610645493    4.6165937083140518   13.0576988688087816
Na Cl
  64   64
Direct
  0.0134531526058810  0.0095856476695766  0.0002072019056677
  0.2704235781632788  0.0008337077600199  0.9805409216024153
  0.4804760872184021  0.9988975861654016  0.0180570097525564
  0.7523441471012323  0.9976749135824691  0.9913188948714509
  0.0050706061213184  0.2386720510463380  0.0030635821550698
  0.2730029676267087  0.2386837105965603  0.9990443917889433
  0.4897983970181262  0.2504267894945801  0.0018375155682608
  0.7427327957692287  0.2556588202798485  0.0034664973689195
  0.0060305557817384  0.5066075731285906  0.9838085700977568
  0.2381291867177222  0.5031844720904600  0.0020182157144530
  0.4982912156300149  0.4988357347447886  0.9980860975297114
  0.7407911366307067  0.5073148455990958  0.0136102548662663
  0.9951730997120108  0.7633350150264687  0.9983791829013664
  0.2464279204804057  0.7421891402428392  0.0124579273627854
  0.4954539442844974  0.7463639397531028  0.9963604463817153
  0.7368641650302111  0.7456654643553805  0.0001648258047750
  0.0148913615888453  0.9928275690030348  0.2599548237504968
  0.2409592067305480  0.0113488932334908  0.2639378779959191
  0.4910996566875498  0.0031975109835068  0.2645517143221524
  0.7454333401272638  0.9987961986912108  0.2527831667142957
  0.0079084459509881  0.2400329449147809  0.2347869877505870
  0.2537875846731001  0.2608793132021493  0.2363045732993325
  0.4904908604533466  0.2572101267976762  0.2433945736152581
  0.7576704683373930  0.2437671074109962  0.2458783636425249
  0.0048790836524143  0.4968591205073661  0.2519657116749358
  0.2526943337265121  0.5084185553426914  0.2414398997010966
  0.4793132430370854  0.5234265773126947  0.2458265067936853
  0.7469032180038687  0.5045813107925819  0.2574194750071965
  0.0079097629580075  0.7509159011110126  0.2531443670152033
  0.2468280181253439  0.7461396039206841  0.2586666743597155
  0.5070463662416174  0.7554360962927980  0.2340399485410072
  0.7564938139854205  0.7533916642905919  0.2589938039298006
  0.9966748725679486  0.9950298486040737  0.5059679054757106
  0.2380546641819274  0.9882393380107428  0.5219720509188849
  0.4969502312680195  0.9886770888739611  0.5033175975795359
  0.7743229560275391  0.9914973719744086  0.4929794466535717
  0.0181335438910773  0.2469258824071304  0.4798642622755046
  0.2661948525066559  0.2350965610148945  0.5069838667498985
  0.5125972515339458  0.2498082053429442  0.4830196918721053
  0.7577154029430799  0.2426143592976227  0.5115774068223820
  0.0113137072243650  0.5119959367234120  0.4984049243152096
  0.2540232879595526  0.4999897180264447  0.4980645769060624
  0.4962633438988980  0.4834380113950081  0.5107703325104490
  0.7403500576639459  0.5030099947737947  0.5007365094157484
  0.0139323404562472  0.7366014639305493  0.5142714466639577
  0.2512901846269591  0.7419435965650534  0.5137912286099318
  0.4917432011426038  0.7347058154859767  0.5034919425043738
  0.7549062880811450  0.7327871924484363  0.5092623203055605
  0.9938993424468150  0.0076519983706290  0.7681370485674474
  0.2562470559177327  0.9824929813084888  0.7554324897736918
  0.5164065687763115  0.9866369816678167  0.7492459771365024
  0.7533486814870817  0.0122794313542957  0.7337007458762341
  0.0186687658860187  0.2635354546959651  0.7498015305860036
  0.2510146635670445  0.2223439402737249  0.7748245216701100
  0.5015539133216560  0.2585523146781015  0.7374786470944511
  0.7582508977980995  0.2306218961773494  0.7563794217496004
  0.9969191704975131  0.5095677234795576  0.7528952455334139
  0.2528870455537507  0.5123755755210861  0.7499730774132358
  0.4939889813969520  0.4931160292963359  0.7464633689576059
  0.7352822868995865  0.4905399404980900  0.7554694085999859
  0.0160700959660584  0.7488164775636839  0.7488851678317737
  0.2542181506064730  0.7382732668824354  0.7482707609877673
  0.5219591614369244  0.7497840382581407  0.7365934317469647
  0.7373014546525314  0.7713860377437138  0.7528476512704202
  0.1225002723676904  0.1276549697874663  0.1345300173153764
  0.3904001664365684  0.1224141189543624  0.1178427243766789
  0.6271200908255857  0.1286496559972974  0.1201768189280633
  0.8609074187391287  0.1322954455283398  0.1206224193416160
  0.1154100103175412  0.3818791134465631  0.1351925186150405
  0.3898818785382380  0.3699086607490316  0.1227784374581240
  0.6152861202857970  0.3919653135021260  0.1298852183714274
  0.8779985189884973  0.3885451039871566  0.1139874467122933
  0.1157607050882355  0.6421695181684882  0.1046750937312371
  0.3681586749255234  0.6389759565802884  0.1031048895972110
  0.6187731567884712  0.6138252281224923  0.1374118694109343
  0.8716393359148107  0.6392335311516997  0.1188527897537311
  0.1295869824674991  0.8975168668751067  0.1125160206802567
  0.3782421814836067  0.8801857634051162  0.1287870471908413
  0.6209629555295197  0.8746811461038275  0.1215896466010906
  0.8945613397583906  0.8744176295818197  0.1230290056685658
  0.1217335059163430  0.1224759160519059  0.3876272850536274
  0.3589950192535588  0.1256831977286373  0.3809694032720871
  0.6183857710667512  0.1269872274053339  0.3784646771897025
  0.8704557627313342  0.1188497710709411  0.3832901933975161
  0.1204918695879136  0.3709753746722296  0.3949555297113998
  0.3703557576035648  0.3788475997978414  0.3677467923730994
  0.6259761678342961  0.3812820657849346  0.3659490127721497
  0.8922188788789058  0.3812193426042644  0.3559842944361371
  0.1267972814836128  0.6253386230955351  0.3766185318893023
  0.3732302190777232  0.6148675860360673  0.3875253652880738
  0.6210039783524551  0.6314030050636688  0.3655662878534695
  0.8712237723217583  0.6257293669125038  0.3737843747657122
  0.1164165429943249  0.8642776953478614  0.3865321602482247
  0.3658966885863313  0.8850069658778503  0.3694624042912404
  0.6433795994403420  0.8748458497901295  0.3678328914147831
  0.8820997851539314  0.8743098995557288  0.3664207336133535
  0.1364916501347394  0.1099728695003981  0.6428532603745286
  0.3823359247196678  0.1235105845565507  0.6148288054406650
  0.6183634961789479  0.1301569743629160  0.6136217321957511
  0.8728079053059256  0.1191314483388825  0.6101748308534592
  0.1033851650060617  0.3850708302116757  0.6257806887029986
  0.3767846217172862  0.3771123590863912  0.6181121485596892
  0.6068294092193068  0.3891466865291965  0.6131533093595231
  0.8713836796138106  0.3824328006306494  0.6283525863882131
  0.0979294700180920  0.6379004275675416  0.6357988277299139
  0.3783886831159269  0.6291580572646366  0.6205982340668884
  0.6228263499086141  0.6211275995548334  0.6260771871246594
  0.8723225931084092  0.6236677822793256  0.6212822334519332
  0.1151352397986485  0.8674100024501997  0.6275494434351540
  0.3798364963715347  0.8602819004315375  0.6260607635020842
  0.6166215240006093  0.8675036781703286  0.6326523307056170
  0.8809342626411468  0.8757590098020057  0.6312750895333467
  0.1323916407177522  0.1180319546797045  0.8871120967350714
  0.3777467999119836  0.1268844072525192  0.8878515596626296
  0.6017429979631047  0.1209434240674731  0.8893414910402343
  0.8826557733170866  0.1254122105646391  0.8770658760231351
  0.1204312554462184  0.3816446898978647  0.8725852167327428
  0.3616846252971813  0.3688121870127686  0.8713382053893310
  0.6384339415423883  0.3528238940529041  0.8685464262032185
  0.8911023665568754  0.3787057780343214  0.8624035210516813
  0.1459119008341953  0.6118994013832414  0.8788992986131635
  0.3798601546736121  0.6073139957392929  0.8950315093554604
  0.6051287247891218  0.6299297248218113  0.9004144172190390
  0.8538884033651918  0.6337135797673880  0.8640570859703131
  0.1180781326941236  0.8937026125583549  0.8798557343210559
  0.3750319357091861  0.8810086593915269  0.8761616863771623
  0.6259866067685789  0.8738156085383395  0.8723954405110912
  0.8868524915152576  0.8635598668601194  0.8637766905001618
