generated by phonopy
   1.0
    15.9923497217343744   -0.0000000000015236   -0.0000000000010772
     7.9961748610645493   13.8497811253384029    0.0000000000003944
     7.9961748610645493    4.6165937083140518   13.0576988688087816
Na Cl
  64   64
Direct
  0.9846899608523844  0.9938477098152111  0.0197741828024660
  0.2451776638219382  0.0157194113593994  0.9926476194234545
  0.5021918955298129  0.0052135987762218  0.9918050641697496
  0.7666556631519151  0.0041966224410799  0.9943414947499758
  0.0263964041120898  0.2471792075476401  0.9795546081376721
  0.2527000222184110  0.2479822953832042  0.9999920802233441
  0.4855275166787956  0.2407117049151051  0.0273772847926248
  0.7508715400071238  0.2530056807258717  0.9927663316261125
  0.0076329344280454  0.5118363676125092  0.9991471894771436
  0.2521139768016450  0.4934566625425270  0.9969707527585049
  0.5100010612294883  0.5042878526205576  0.9944901611684194
  0.7407818037127500  0.5100672491945591  0.0041790926824075
  0.0195864060700734  0.7500141403694517  0.9839338235338150
  0.2440467106470347  0.7359922315936901  0.0101913009779100
  0.5163462846405097  0.7301823758282294  0.9973142613738940
  0.7375765121238749  0.7652712614288064  0.0048873615040728
  0.9977179092406697  0.9881211738336463  0.2727932769815837
  0.2457282570859461  0.0188266673276593  0.2455826946434396
  0.4899131319209283  0.9899362586399953  0.2516749764171194
  0.7436427305568235  0.9994172688310302  0.2485113468846158
  0.0022905219160920  0.2517260837711873  0.2430344194894607
  0.2248933647457390  0.2584540363048254  0.2560022572216603
  0.5105411825212596  0.2371838637467820  0.2528167678502930
  0.7487719468604112  0.2534692022670549  0.2496809580310893
  0.9988153549512152  0.4794399316782850  0.2646286091911235
  0.2488233420575953  0.5004386743634067  0.2608513858327521
  0.5203605145995878  0.4941696118016006  0.2479022065066474
  0.7466591438147792  0.4944544180123067  0.2415235377920061
  0.9961476542138212  0.7346243541499878  0.2698157490769523
  0.2525182666530259  0.7384145771532135  0.2480055768523301
  0.5057852079901402  0.7393574969054574  0.2472209868890310
  0.7620674340445373  0.7403784768429976  0.2489176812109809
  0.0039362192820562  0.0218869692084584  0.4984524279971823
  0.2665465864585479  0.0015679077005529  0.4884512778326679
  0.5130663614221254  0.9843536327136647  0.5060681556975706
  0.7384342691399066  0.0035946492863897  0.5149979720543452
  0.9947909649869556  0.2408474860007034  0.5047756478619773
  0.2465296642912419  0.2457949377328647  0.5086913717381584
  0.4996898024050234  0.2605646777858290  0.5059831841399413
  0.7606103163753779  0.2520020211800248  0.4999647099871460
  0.9773208281599609  0.5088526234646036  0.5082028618833845
  0.2538587462736978  0.4890025387371710  0.5014114653915609
  0.4957649386908315  0.4975367779496955  0.5042140178704019
  0.7466591346792122  0.5075872728424432  0.4961809219343554
  0.9849570577445930  0.7553183934129037  0.4944418499602252
  0.2515130333817265  0.7361869283385539  0.5081142134496234
  0.5164494586535701  0.7613252926946448  0.4875295744536509
  0.7543565757546740  0.7499608089421990  0.4985671951468286
  0.0067371106065333  0.0007329125880617  0.7486090698247203
  0.2553391988223899  0.9890135491100644  0.7561082150462515
  0.4948564491699285  0.9838950538848023  0.7545774466070242
  0.7534121212700948  0.9875924854161083  0.7615595724895887
  0.0066255665889984  0.2380250392543019  0.7616842530541933
  0.2570674964874134  0.2549835374957753  0.7238470807254388
  0.5052809971997860  0.2617848113002745  0.7298045261618363
  0.7509286471947767  0.2562806384474802  0.7533197817945961
  0.0154924949972876  0.4930702072056432  0.7291332007017991
  0.2373139250944463  0.5119918402679168  0.7623437696022931
  0.5021406248700848  0.4920898450422148  0.7523782250532698
  0.7640282424076890  0.4935632171728156  0.7445292311156089
  0.9912205303940791  0.7559355215726008  0.7450849980189233
  0.2465826901659171  0.7382307486953547  0.7467599731522186
  0.4920036713567382  0.7628851590755270  0.7368444738316479
  0.7344035794655531  0.7477702707811286  0.7729172363215688
  0.1167086134709683  0.1189536368669172  0.1207825643009107
  0.3552881330547365  0.1473605801650263  0.1195250812211082
  0.6317461629092126  0.1331149259398225  0.1125600222290054
  0.8730500019166421  0.1263960147103099  0.1368553681594508
  0.1252608298889308  0.3704191365961068  0.1195361563554692
  0.3590607259600762  0.3914618921659134  0.1317990272651036
  0.6290670769574120  0.3687180866867878  0.1308751516533997
  0.8891287195835594  0.3808843103420303  0.1183557872508521
  0.1019278039456354  0.6319789299595108  0.1360284715823122
  0.3577949725957398  0.6279023500176213  0.1283890290579072
  0.6160111690361161  0.6391753631095263  0.1074478531857118
  0.8818650038255400  0.6354832302203978  0.1072684759503405
  0.1427575634541995  0.8774778848428202  0.1118738660171775
  0.3867608103748590  0.8789737260145420  0.1173766763322704
  0.6367238223236306  0.8771997980663837  0.1292231843842346
  0.8644973397858915  0.8883324665608845  0.1161871555491352
  0.1297267627061282  0.1070376819389158  0.3697457896482615
  0.3729145685584625  0.1293811627873289  0.3710008594214783
  0.6314646214606895  0.1242853648402852  0.3768256400400487
  0.8793157610569222  0.1221986994511169  0.3848134043841634
  0.1196134379249692  0.3627134816390472  0.3775164277235715
  0.3778571949961158  0.3700337799429654  0.3670650445326291
  0.6288345323554252  0.3779739409463926  0.3722487029690872
  0.8776554404791810  0.3703761934046562  0.3853753935615746
  0.1252303614773447  0.6344741565503058  0.3835113446018049
  0.3656391056586703  0.6172396023738302  0.3841664242490943
  0.6172049238328469  0.6360456373429608  0.3768635638163890
  0.8689147641071245  0.6383251797176691  0.3705689140608809
  0.1221863077149493  0.8616702370458378  0.3906289089357946
  0.3756314779538301  0.8894823216808038  0.3761051855749948
  0.6042420749871272  0.8980971171033925  0.3821048236500562
  0.8828670615085382  0.8645504965243314  0.3739420137690201
  0.1265168305136391  0.1406491167135542  0.6173985892359224
  0.3746783475303002  0.1220960552198146  0.6334145378851430
  0.6377845903053622  0.1252040241784789  0.6106947984262878
  0.8814543635755177  0.1260567441157760  0.6103098037041824
  0.1090479361652802  0.3889688417902524  0.6226406183663387
  0.3566590303027022  0.3844245796500598  0.6325324516482568
  0.6103136423987947  0.3739645593207322  0.6228749287816608
  0.8667230121885576  0.3938751753096887  0.6252453371209294
  0.1209431046832622  0.6040334340240472  0.6448905487427607
  0.3774662176484173  0.6228158551116451  0.6128482370521351
  0.6254784497486052  0.6169543532198922  0.6211345778320736
  0.8745563535324719  0.6282876814188136  0.6186713121798956
  0.1271209839305970  0.8705743322896902  0.6273595693574726
  0.3962094812308526  0.8773494324884301  0.6221167499611580
  0.6134126785849484  0.8969661761607355  0.6289988127750840
  0.8830166634661215  0.8653179695083325  0.6348135903962093
  0.1339035163159191  0.1063079006668840  0.8684478386779864
  0.3806903855620096  0.1297110753728316  0.8945780325300207
  0.6276868168039713  0.1160037238620038  0.8708652161285684
  0.8713798719941839  0.1152200584457646  0.8814952992656261
  0.1163926180551959  0.3785846491257286  0.8664073823990884
  0.3766191849298990  0.3806327592959705  0.8767549908393262
  0.6233476083202174  0.3669982314536040  0.8884040257080241
  0.8628409092670766  0.3962086566479002  0.8742037001932945
  0.1051194107722472  0.6381380655093354  0.8696947002417567
  0.3615909424981887  0.6122055541671163  0.8867084973848921
  0.6226191440458082  0.6258504469252556  0.8749789748839454
  0.8775349064502280  0.6273756640312020  0.8682728452786391
  0.1189865203339771  0.8650654282110061  0.8960698400045753
  0.3851570722417050  0.8825607184231683  0.8702229767330066
  0.6354128770118810  0.8803619920797668  0.8740850620245748
  0.8764849919731935  0.8753316623725420  0.8772972610281597
