generated by phonopy
   1.0
    15.9923497217343744   -0.0000000000015236   -0.0000000000010772
     7.9961748610645493   13.8497811253384029    0.0000000000003944
     7.9961748610645493    4.6165937083140518   13.0576988688087816
Na Cl
  64   64
Direct
  0.9971773209379544  0.9855799074481183  0.0075237804057626
  0.2537601170673118  0.0022381911761157  0.9824375198171797
  0.4862082781752853  0.9960730189884230  0.0101548254993409
  0.7503780519598876  0.0115638713627173  0.9927397290506769
  0.9993720979875604  0.2523325684464754  0.9922407420389194
  0.2677893527642499  0.2333654073170424  0.9942073344181269
  0.5062692460002719  0.2569349907056756  0.9887719968342549
  0.7303659169127071  0.2508148421588107  0.0245517093290423
  0.0062026987677256  0.5107210065247947  0.0029835082489496
  0.2540781267046058  0.4881379174445130  0.0135823724594896
  0.4974595630963164  0.4907373380233617  0.9966823747468931
  0.7762424056150763  0.4732137641084900  0.9851573810977201
  0.0158032032886659  0.7403774596330670  0.9984712443138120
  0.2525179684954884  0.7577469215451847  0.9880617537743156
  0.4873283195531106  0.7616829744893593  0.9933330566930215
  0.7506471650434703  0.7269434906201141  0.0164271277049535
  0.9896022724230629  0.0018582081212805  0.2510060502842301
  0.2583385130348488  0.0160819485373739  0.2465813664974206
  0.4904455478394394  0.0068949713846202  0.2438001939920148
  0.7664075146668018  0.9842928721379104  0.2614524751985765
  0.9888774583479759  0.2651014711579620  0.2465218854370783
  0.2572267279512136  0.2208416875515045  0.2768037468919073
  0.5050357647864328  0.2438491114110119  0.2624155234635076
  0.7566676007164275  0.2615455471737310  0.2444519876167003
  0.0264745531966731  0.4897555614797572  0.2317272493689665
  0.2599091297225217  0.4884088604273807  0.2555268692043389
  0.5134294712551405  0.4915229267512605  0.2538991302893793
  0.7526137962089233  0.4978905092136567  0.2427332745468204
  0.0102644563327229  0.7384791762387894  0.2502932236503581
  0.2435426037535550  0.7538423684586806  0.2517524743987638
  0.5073293640090121  0.7667970834510169  0.2470853838226508
  0.7475395655457531  0.7627193835927718  0.2390043087612659
  0.0112021619059842  0.9999641625465038  0.5068947937978462
  0.2633679086430147  0.9819274745502418  0.4868429457940509
  0.4747737294988805  0.0063861807397810  0.4994032233248741
  0.7483196687845474  0.9778384882755231  0.5056818982617948
  0.9896453254029778  0.2480791757770850  0.5144139010789085
  0.2560783303224595  0.2367646058913753  0.4978973002963021
  0.4979677961209603  0.2650205621508964  0.4979956528814720
  0.7246703218966026  0.2478228794553154  0.5191107132131039
  0.0007013818753702  0.4750829276923278  0.5133091390236715
  0.2422807007547571  0.5027527184855793  0.4966659800103892
  0.5153596277066170  0.5024998265210003  0.4996427797720120
  0.7270986695847932  0.5021986033694141  0.5173521325124785
  0.9825250785803415  0.7545985498595155  0.4898002759858492
  0.2490699560592258  0.7437012532659992  0.4911102104683263
  0.5054983991558042  0.7364695589628164  0.4982074709599147
  0.7539056550974517  0.7502575906499601  0.4840689070788210
  0.9899823077380189  0.0057740527590587  0.7580782412306365
  0.2552652281322803  0.9992477985597542  0.7422408242037497
  0.4955833306939569  0.0009442492219191  0.7574352278309663
  0.7427679943822278  0.0183043573494444  0.7377985764007289
  0.0031392047274676  0.2478578919922660  0.7522189020275691
  0.2597916039221882  0.2365480259341493  0.7471362178905331
  0.5026317019918519  0.2489535656655114  0.7476480234716318
  0.7459467541150377  0.2532035275600308  0.7389574211728690
  0.0131604380108839  0.4874360150661577  0.7595283215245838
  0.2446548409614950  0.5040205574648978  0.7459746320083734
  0.5132863792453307  0.5032096617088473  0.7255611235235663
  0.7348708040941083  0.5057636828839089  0.7378979889977936
  0.9891762496031120  0.7459407231602715  0.7672425291941553
  0.2424589580239505  0.7432137713554438  0.7591539260655297
  0.4993296822006885  0.7516972336170509  0.7545307832601419
  0.7572192815919367  0.7585114596298812  0.7429286807710855
  0.1183200856479610  0.1101960129540022  0.1331059421900832
  0.3643668486514715  0.1209037695296476  0.1202715298709742
  0.6166429099313671  0.1227132974082942  0.1294267243560656
  0.8831721317167662  0.1216291796985474  0.1311820447105963
  0.1344519095200989  0.3559154728605260  0.1241369852757180
  0.3699024913009620  0.3915480886743465  0.1229016063895626
  0.6275486951803441  0.3737155578351555  0.1281990106211854
  0.8718444952993051  0.3815611002477728  0.1228761371467201
  0.1262433478169634  0.6155891572894397  0.1288532497907364
  0.3923225693016755  0.6170465522042511  0.1207196109206268
  0.6161057734705141  0.6303411877032045  0.1404330873226664
  0.8749750216720865  0.6126766686298832  0.1252385171547578
  0.1219320090274486  0.8747822691068740  0.1232341049177492
  0.3948397899270010  0.8694217882410225  0.1202733123913135
  0.6324380664305275  0.8773839488093613  0.1298258634112788
  0.8726772485252743  0.8893578700367152  0.1220020404410088
  0.1285083151597918  0.1228144555135072  0.3839436816718169
  0.3868392572486127  0.1141550329089045  0.3769686872970736
  0.6341223116165673  0.1203195422673054  0.3615155509000356
  0.8791352316060240  0.1305515262204650  0.3609937403244266
  0.1202095151187298  0.3841636286730461  0.3514149279413034
  0.3761220329628374  0.3815569844610244  0.3816788937250092
  0.6191047375552854  0.3787654374284527  0.3748231997589564
  0.8753824094129583  0.3907915755783107  0.3693313679346935
  0.1231138991329803  0.6229037277111631  0.3736371355332453
  0.3710322836134186  0.6054391482089687  0.3993419972949573
  0.6396376735168250  0.6181467998651687  0.3832078488320895
  0.8672168437363703  0.6215240509102511  0.3898077273790453
  0.1286959037633035  0.8804121093772402  0.3729998083392136
  0.3679999723508540  0.8792628244643210  0.3748004887794665
  0.6321207921846741  0.8612205126368163  0.3776156571615377
  0.8858422331752571  0.8738823717107176  0.3773564348262728
  0.1321515864764181  0.1182946518685769  0.6239331543747695
  0.3672319992363045  0.1102863748841591  0.6510539038075074
  0.6078719673081469  0.1303256237506916  0.6339617904579634
  0.8675498411559600  0.1426523490637326  0.6230391075205708
  0.1203784255567937  0.3776498378073573  0.6344395595435880
  0.3693059118025153  0.3728008186030196  0.6413713697384649
  0.6275339991412340  0.3682834850997113  0.6248174512699525
  0.8768386151207682  0.3833804704994290  0.6298248431979742
  0.1297119370151292  0.6205802353893645  0.6206170466746874
  0.3867522244173283  0.6227576252526650  0.6304665955957433
  0.6296391113273436  0.6155970751601458  0.6310332658861001
  0.8792704297239680  0.6286124031003536  0.6201671674135002
  0.1139013277436390  0.8647035196688201  0.6357749907998301
  0.3750724174422952  0.8881652605816945  0.6324679807862705
  0.6249692876677331  0.8713922379116088  0.6248586104915252
  0.8588858001135725  0.8822223528136219  0.6192469715308740
  0.1148159823433906  0.1297768831779811  0.8811335988433756
  0.3765881477708982  0.1122579792593079  0.8735868117146639
  0.6225646502717196  0.1306316564820993  0.8737362460033835
  0.8765954241779532  0.1337394457535711  0.8738405658093239
  0.1185605804119789  0.3680064627672915  0.8941397778804911
  0.3900669693729510  0.3665582364259213  0.8748009734592441
  0.6281302541844909  0.3788412248341421  0.8759297161616957
  0.8648152030792289  0.3718759918203618  0.8796172663082850
  0.1197844640668668  0.6286863263420914  0.8503356929010538
  0.3727598180470634  0.6285185350804849  0.8706833970571572
  0.6212679793255844  0.6364448367589043  0.8753652467761294
  0.8693571460090820  0.6274066853761832  0.8834301771616819
  0.1339112150481301  0.8635363246173744  0.8800570210365495
  0.3862580091431919  0.8811042453756027  0.8753857758229164
  0.6298125316160051  0.8602297968104442  0.8822195559937701
  0.8819357972600366  0.8893169707876103  0.8644678884372442
