generated by phonopy
   1.0
    15.9923497217343744   -0.0000000000015236   -0.0000000000010772
     7.9961748610645493   13.8497811253384029    0.0000000000003944
     7.9961748610645493    4.6165937083140518   13.0576988688087816
Na Cl
  64   64
Direct
  0.0035038725348816  0.9970833755637324  0.0101626334405356
  0.2613817747778556  0.0095958999595508  0.9859095578915198
  0.4961125142931607  0.9764264609128517  0.9972657456095094
  0.7466675124243404  0.9994256240667515  0.0009310136813003
  0.0202116160051297  0.2510055108104778  0.9713813940637270
  0.2738139326270761  0.2432875051625795  0.9891781318823782
  0.5135849149621324  0.2467809676450072  0.9937617653869723
  0.7475712620403853  0.2552615406385939  0.0022684341537793
  0.9842778482128597  0.4951542724198190  0.9950003494147240
  0.2596015421896821  0.4953979567914329  0.0019001449965892
  0.5010881792871515  0.5011702690739905  0.0151719743404321
  0.7426778943449706  0.5083363465650508  0.0096018447825816
  0.9933976895490407  0.7548039025395814  0.0102863793801991
  0.2662282369674336  0.7442768786375300  0.9976553492650403
  0.4961379662088480  0.7437501106920540  0.0141462297456013
  0.7424064913358467  0.7599220419763140  0.9910151058189371
  0.9947781388572869  0.0139070581685946  0.2402706867544881
  0.2404602680576136  0.0186595115496382  0.2467319466716921
  0.4990006625318901  0.0182344628420392  0.2487289508791402
  0.7417623396744994  0.0117224167584987  0.2683771433297322
  0.9854508824201271  0.2537451266567439  0.2566497965340437
  0.2360194804252396  0.2503223693448859  0.2524967695027312
  0.4786569895994437  0.2566827097346248  0.2527696366203488
  0.7602177601065502  0.2346719694596377  0.2560620104530035
  0.0004570397681130  0.4960438611632730  0.2619000487092238
  0.2570727290366557  0.4990658006313857  0.2436065354821532
  0.5023510711594330  0.5126640900050827  0.2473659781431051
  0.7617432096735592  0.4941000886936672  0.2403746834643545
  0.0002035332328011  0.7441626269571341  0.2415209610116476
  0.2430680480878585  0.7439202466261163  0.2533397957777367
  0.4906586892808128  0.7545554354134347  0.2508425080374571
  0.7400371539387646  0.7428774687487648  0.2645631375158599
  0.9954215431309459  0.0013757421151280  0.4999076818581248
  0.2601590622601169  0.9954439122503891  0.4881169685399845
  0.4813363309966897  0.0026232235188460  0.4961670024133509
  0.7444974437516709  0.9788396690957369  0.5087419675850923
  0.0276468766450843  0.2277698027356937  0.5014740794139843
  0.2693002219219650  0.2467226586553205  0.4881789847276807
  0.4829319330599194  0.2693691241875641  0.4915176384713378
  0.7469832574319570  0.2585882620490377  0.5014040578612646
  0.0104516395672992  0.4954603994942944  0.5010287362647871
  0.2432992401528803  0.5080656590282041  0.5147471022875664
  0.4952366534264273  0.5036582209955547  0.5081760116722831
  0.7320618747752101  0.5045785139851009  0.4993695809281549
  0.0169375095881520  0.7406219816187352  0.4950255477703964
  0.2552524331837816  0.7632177588479181  0.4886811396500991
  0.4989924684969393  0.7496970613127039  0.4918964029311023
  0.7377667794882460  0.7551881447958836  0.5023311677146152
  0.9927947607398278  0.0114061409485721  0.7466687510763350
  0.2455009973768164  0.9919701192104183  0.7461946602933213
  0.4927885205007113  0.0178498235936335  0.7349528020831392
  0.7428302094659670  0.9881441087018690  0.7481704337363800
  0.0016788295383187  0.2374668225519583  0.7364224273359894
  0.2475263742984369  0.2579677208174200  0.7492672532627218
  0.4879013943827670  0.2463435797259389  0.7606410199035600
  0.7707719192493251  0.2391605151927940  0.7322989648081124
  0.9866749540283866  0.5229869514469301  0.7434116387939486
  0.2593178634439459  0.5030881599511348  0.7500331161530954
  0.4987923376796699  0.4961182012952605  0.7561369276601643
  0.7516233125449300  0.5027722044835226  0.7502943786475041
  0.9903860285367270  0.7413210588148986  0.7630772926973608
  0.2488611564498370  0.7450220837112633  0.7541219727197482
  0.4868892008481545  0.7560764326295482  0.7693688819556029
  0.7430479891598066  0.7580880601965005  0.7491932408672189
  0.1414628022090396  0.1130467707358401  0.1264985205979218
  0.3803025446909986  0.1205504371521560  0.1316750747721886
  0.6145482250238088  0.1363213882037349  0.1173707073997322
  0.8769568912920592  0.1216400168366808  0.1363145752257882
  0.1381921133036368  0.3555532128411086  0.1207005469683313
  0.3742048065477103  0.3795799707500267  0.1090813390740501
  0.6179556678841365  0.3793572463974356  0.1460481028423634
  0.8608987702047857  0.3888583511031336  0.1297852543000006
  0.1077117311363923  0.6180383468941966  0.1368956083848752
  0.3844638338221257  0.6419550786121742  0.1054552556378563
  0.6330309971576779  0.6287132668291475  0.1110401280767756
  0.8728078283885927  0.6215026919748823  0.1266459009085411
  0.1335024787100242  0.8572823619718577  0.1336804466687335
  0.3698090012952004  0.8694286897111297  0.1311457021792865
  0.6186052845013519  0.8739449586612121  0.1390635536679077
  0.8794750134645135  0.8864592043845705  0.1216360720123199
  0.1253315408331295  0.1474130045936139  0.3641301875629721
  0.3755089787994921  0.1053817121201966  0.3946108756384024
  0.6345053854446504  0.1271222685828132  0.3853498129112110
  0.8594162923312101  0.1330581104447768  0.3718404273559693
  0.1221462928669175  0.3716976959378605  0.3681226046048781
  0.3749889772830504  0.3680823129485234  0.3869377612249527
  0.6318978869624310  0.3767636263070507  0.3708663370508480
  0.8690501996241558  0.3605971760153987  0.3890171910214797
  0.1251330099959893  0.6244403172973616  0.3756877141340326
  0.3770144663921448  0.6372274937308282  0.3782666419761767
  0.6188269913043485  0.6375628274087297  0.3632780595359981
  0.8691823254302378  0.6228161150135709  0.3845112700400292
  0.1061107095002718  0.8706983307938730  0.3934443461723123
  0.3799531086340904  0.8857360460612951  0.3708324568967837
  0.6228362202531117  0.8690649075550837  0.3756907865423452
  0.8841883657776861  0.8779308430230093  0.3566449122211946
  0.1247257051233870  0.1184971074313843  0.6290234545210918
  0.3769033367241212  0.1184135941768032  0.6237865097674639
  0.6320747818002146  0.1150330680362100  0.6070990315299565
  0.8595663754247311  0.1245639327074028  0.6317993325302707
  0.1213538095604088  0.3665072531640429  0.6215333006425395
  0.3799541153777029  0.3794121647500258  0.6073677447589533
  0.6205640781676400  0.3707240855815720  0.6122985246697187
  0.8575219663465253  0.3815538767607680  0.6161486151086273
  0.1075763670613165  0.6321318115832320  0.6244878790970992
  0.3735849756635373  0.6149103777942404  0.6389800057300762
  0.6140018691564739  0.6213480070290839  0.6259546913457040
  0.8595136426635379  0.6236584662784935  0.6299864294653239
  0.0968483563977650  0.8840173304542015  0.6310495795989483
  0.3733294555037838  0.8679519697090559  0.6447883448238366
  0.6133287670079081  0.8789079879678221  0.6351842039907295
  0.8620672429958213  0.8858059087946749  0.6213673887392486
  0.1065954578309397  0.1352226488570736  0.8736135851815314
  0.3664071653873976  0.1348524200220358  0.8877358441939047
  0.6211245830325303  0.1158700576776571  0.8860695585619585
  0.8800057319288257  0.1185962703698037  0.8762932476043555
  0.1058306728877781  0.3915294872270817  0.8760105713469332
  0.3797076833635296  0.3599147419037791  0.8786602942466402
  0.6457191922642721  0.3822429140489529  0.8747574036681329
  0.8635791026176169  0.3787052238929677  0.8787539247790963
  0.1343952717883260  0.5983385648379791  0.8782956521523057
  0.3674773298597169  0.6257225646112066  0.8791175204130293
  0.6376617299652938  0.6169208314610674  0.8648208890875440
  0.8715765408115668  0.6406477815340528  0.8798195886429857
  0.1157131891699110  0.8651250712182028  0.8808270772396815
  0.3738207098177440  0.8814473368348152  0.8774664170157560
  0.6325582068928213  0.8569670702129509  0.8999865073498285
  0.8648270974752068  0.8653217475440342  0.8812146675715852
