generated by phonopy
   1.0
    15.9923497217343744   -0.0000000000015236   -0.0000000000010772
     7.9961748610645493   13.8497811253384029    0.0000000000003944
     7.9961748610645493    4.6165937083140518   13.0576988688087816
Na Cl
  64   64
Direct
  0.9859458671085637  0.9946268613188552  0.0036196403441182
  0.2631259127335064  0.0035259039268582  0.9875703053856990
  0.5218698341139358  0.9871912851832049  0.9963274469319240
  0.7523691597492816  0.0026159832150532  0.0022768594723753
  0.0140662238427862  0.2581916734026740  0.9871895741053216
  0.2455083665117967  0.2365943703936071  0.0134571623882034
  0.5199846896233347  0.2582612405835388  0.9732923882413915
  0.7550448711071823  0.2788169339273711  0.9787398822259561
  0.9875218250352759  0.5108277699552450  0.0028880558255057
  0.2487172320584216  0.5005389313044750  0.9967002016620278
  0.5176548401860109  0.5005703410258562  0.9820062697193981
  0.7580364084507446  0.5016064940217752  0.0059586933147521
  0.0137910561523618  0.7567222564740155  0.9868124592186365
  0.2621423380398417  0.7415508632456620  0.9704180776219190
  0.4892917265243170  0.7685907102457153  0.0041101937637379
  0.7393266241450546  0.7556913485468884  0.0126795236265683
  0.0061853864282328  0.9964388556081678  0.2360361556354874
  0.2399622348972637  0.0061227557480616  0.2478504726197584
  0.5139171672733613  0.0132583371989929  0.2396221894230146
  0.7405166411641837  0.9896370508618449  0.2503012686178266
  0.9925652337698877  0.2509514557090019  0.2507871982687049
  0.2501541355575108  0.2359848761285576  0.2512926446343279
  0.5060986338709207  0.2373755807187489  0.2438762558009059
  0.7367024727276287  0.2529187105609609  0.2612548242768035
  0.0161878741806945  0.4949671557031357  0.2422886669582950
  0.2636726620784841  0.4910972679426077  0.2248746432171311
  0.4914454417328140  0.5160708252519802  0.2544884030403100
  0.7602587120845493  0.5110853114262862  0.2367319707795379
  0.0079499900977135  0.7462372513293267  0.2510286916875136
  0.2773660030616995  0.7440212653150283  0.2536995995618329
  0.4792076008390804  0.7489329262727832  0.2493258335055257
  0.7635274044059261  0.7403156418735112  0.2476860001701136
  0.0012187516054435  0.9895357851304881  0.5095239051649778
  0.2523692015131812  0.0037240407718867  0.4972234795074974
  0.5073322542008012  0.9921373997489689  0.5011042447449000
  0.7434912221724900  0.9996630366262642  0.4994617775702150
  0.0165681992234620  0.2317220890555344  0.4990182759973303
  0.2506907681673796  0.2321583845623998  0.5242253780131055
  0.4970570973623162  0.2672133803393452  0.5132932469761606
  0.7550541569763475  0.2375716681569001  0.5101365346952726
  0.9962642096362451  0.5020406104449832  0.4977420381531984
  0.2725187947698795  0.4881445858262718  0.4884693906129408
  0.4981018371819985  0.5004358573390272  0.5157969531305370
  0.7442682396297780  0.5031829140794787  0.5095475224182605
  0.9928712362931642  0.7404443487096537  0.5139183056487395
  0.2420788245539940  0.7504887303379097  0.4921035393260079
  0.4917538104195183  0.7531182624490149  0.4990937308420658
  0.7436973059781060  0.7641255280265702  0.5025943624911684
  0.0011539247222389  0.9893722400244123  0.7476830574994958
  0.2439477870255822  0.9892266234697011  0.7547972283974818
  0.4966809302370135  0.9970902185925460  0.7678438547838640
  0.7320671267532579  0.0041313902467364  0.7485974477807108
  0.0112827225476117  0.2455245026626369  0.7412481994530129
  0.2442337688596974  0.2379972547445323  0.7550703927920194
  0.4909848877784718  0.2362211325783890  0.7625698529787311
  0.7530273414605561  0.2566026861776938  0.7502627397139179
  0.9993760291875028  0.5052421979848666  0.7372126201989188
  0.2376328561965988  0.4999436863408480  0.7512367189146446
  0.5011474552625808  0.5024191368509120  0.7430977486026664
  0.7450765297446215  0.4929455460101557  0.7556504205731200
  0.0034506227642477  0.7479530958855659  0.7445997616337979
  0.2525837249874523  0.7546880560764027  0.7392021799304275
  0.4864429946400137  0.7631400554062323  0.7480000231660066
  0.7550546400062939  0.7317304952376562  0.7367565426283802
  0.1175421131946250  0.1302289125513955  0.1350721345863314
  0.3653386970414339  0.1412790017345420  0.1170509350054549
  0.6243681758342589  0.1250746869419331  0.1171937728562818
  0.8841091248392305  0.1181429117977127  0.1187273377526704
  0.1320910614305417  0.3835860424473756  0.1096671092638163
  0.3569994466163203  0.4096278329161416  0.1391157317584032
  0.6171452810120166  0.3672503446145750  0.1421181613123762
  0.8703460872709801  0.3798843168989907  0.1314749902879220
  0.1295439735558981  0.6235174787031880  0.1157446209107970
  0.3826234270618118  0.6347043747865606  0.1234784114834490
  0.6277948712653242  0.6108777103550087  0.1297126813581428
  0.8782485546233404  0.6357326233682391  0.1256066455484709
  0.1048295561813219  0.8689651061640995  0.1351559803716713
  0.3710122827990035  0.8935873550494372  0.1106486720037433
  0.6136565551924282  0.8834548314615063  0.1225952177331271
  0.8609362593274417  0.8615193884104502  0.1471080428417334
  0.1037423516622600  0.1203785820967164  0.3828491713908691
  0.3640298748285554  0.1129696471661965  0.3849986849343251
  0.6133520365174919  0.1220242679917913  0.3738360344760152
  0.8823787119398256  0.1197614944387006  0.3723306118897410
  0.1328496141689582  0.3751253624857883  0.3691481882935843
  0.3911216369408381  0.3671571825088042  0.3787770809963927
  0.6268133523874000  0.3794010769393379  0.3717036816849261
  0.8771809041013322  0.3646071730560929  0.3864192030071933
  0.1267884405349474  0.6316158403706859  0.3794618960385493
  0.3794887116887528  0.6368392138451776  0.3613353691340364
  0.6228881207837784  0.6230145148885399  0.3995446431536755
  0.8936274892127544  0.6225047268604691  0.3720585687027784
  0.1162330526570406  0.8785732578911956  0.3756342659122060
  0.3727701855183535  0.8945456924129640  0.3724502649938164
  0.6229478490018887  0.8797241074537394  0.3664389177172617
  0.8722772994306389  0.8732054806986062  0.3790302174283549
  0.1259088176028671  0.1175763648958966  0.6195450535512476
  0.3833129212684381  0.1208742570924025  0.6308936472989556
  0.6350372143543667  0.1197528920901653  0.6254294527421307
  0.8556013776370969  0.1334365365373744  0.6313142764512980
  0.1355557349279889  0.3809314887275266  0.6123975926309704
  0.3700819304488584  0.3640561875687525  0.6331561300658131
  0.6281280096966515  0.3658922160377249  0.6221287443145496
  0.8865384691950269  0.3814224579255637  0.6168693929550531
  0.1070815994494589  0.6401152332427185  0.6404183398768831
  0.3724655992489209  0.6325031084826732  0.6332546262967890
  0.6223546356871579  0.6254655792560296  0.6350060124394998
  0.8627037228377653  0.6243116142388646  0.6198611456458526
  0.1285658065904378  0.8740745268357517  0.6306432899211846
  0.3678387089857512  0.8736352632376109  0.6301830926973689
  0.6373526962657544  0.8541225023764495  0.6168907620872982
  0.8756337049334768  0.8751155850749230  0.6283994659883633
  0.1189221447245996  0.1347652731899279  0.8721639288352860
  0.3701923184763738  0.1320684538283770  0.8863066725668038
  0.6386873571819992  0.1121465579972132  0.8725285706443291
  0.8771023986093005  0.1196620940916213  0.8762809758020145
  0.1243292434997196  0.3629854768157830  0.8754029716665102
  0.3851763780331691  0.3659531748619800  0.8689442477682068
  0.6323360970351177  0.3688266689070955  0.8798620159364188
  0.8794441954483452  0.3756656062654893  0.8734786646823605
  0.1287706310540539  0.6339334221685706  0.8682741564923823
  0.3651204096855794  0.6261117762833470  0.8733999141150011
  0.6435292218251123  0.6175352353336081  0.8682848653085428
  0.8649466847341326  0.6302788315280649  0.8761737886432169
  0.1400979524059701  0.8657492535066748  0.8694864540510616
  0.3770004140166667  0.8842037132313141  0.8732179245800992
  0.6324240998894251  0.8541394582948267  0.8836799143091066
  0.8937250037756754  0.8713442403025675  0.8765290730763762
