generated by phonopy
   1.0
    15.9923497217343744   -0.0000000000015236   -0.0000000000010772
     7.9961748610645493   13.8497811253384029    0.0000000000003944
     7.9961748610645493    4.6165937083140518   13.0576988688087816
Na Cl
  64   64
Direct
  0.0080760495532293  0.0220260815685625  0.9762424502692835
  0.2210103424730185  0.0102318870397637  0.0140547049722006
  0.5335300487160889  0.9813186793709165  0.9992904788065948
  0.7352052826734484  0.0175589988557969  0.9921484241466758
  0.0042631021182597  0.2614935910195560  0.9885670515014779
  0.2388964000532825  0.2400995739360172  0.0087201573874757
  0.5014960063124188  0.2475861128671852  0.9954283500076050
  0.7239290179165103  0.2554683168073342  0.0083190052939302
  0.9850591900362845  0.5082958510020965  0.0062011577335518
  0.2660520898881504  0.4935416310922864  0.9864690593004722
  0.5205122924718217  0.4784081536828973  0.9753776038113561
  0.7508992642617069  0.4962635655076469  0.0128978002029914
  0.0286523163571212  0.7353574591162386  0.9976340195034448
  0.2536145915777611  0.7449100984935980  0.9917214334964988
  0.5088712917387410  0.7344023960573950  0.9896487012747842
  0.7359497447223681  0.7356452955696271  0.9989815471058772
  0.0017165707181068  0.0155882533298812  0.2435466995153936
  0.2402934061647152  0.9967764853178632  0.2580720275153786
  0.4940963405717883  0.9845129235841192  0.2567616200145429
  0.7457796943108710  0.9963554116719310  0.2553804406363289
  0.0019723184234422  0.2613966886101947  0.2353781169131437
  0.2451351964518096  0.2648488211471359  0.2317332222956229
  0.5194023952159985  0.2255420276711165  0.2489066326090164
  0.7580113751033307  0.2501862392163217  0.2388784447948772
  0.0058225788638941  0.4922221593010073  0.2704868143483637
  0.2381116234855445  0.4963361095161529  0.2661417692508379
  0.5100581098624331  0.5003221908499607  0.2431899398241299
  0.7489526653848171  0.5072077353220010  0.2474855000116899
  0.9927652510183547  0.7540536243402637  0.2492175045266251
  0.2405451417137574  0.7641395660146459  0.2600449870983086
  0.5197461880643790  0.7412178326247588  0.2537261174047870
  0.7684003538109421  0.7479322306327788  0.2315911467518322
  0.9826943905179576  0.0064443822654909  0.5074354252547925
  0.2459399737342472  0.9865430861843985  0.5018602894908611
  0.4950900027971783  0.0162666912662680  0.4962394880550799
  0.7598002423464649  0.0177236852757140  0.4801886535885149
  0.9983375904890376  0.2492529899700745  0.4996748522284939
  0.2628636989112869  0.2468650492654258  0.4880749903001722
  0.4935050194401064  0.2581227153936840  0.4925467073182446
  0.7689201263104569  0.2494278345217028  0.4706792294042131
  0.9903375662698118  0.4892396499404907  0.5110065278668494
  0.2670236176740289  0.4891376063671862  0.4841513206855314
  0.4909519647379562  0.5009528901335780  0.5127928814211464
  0.7334782819933487  0.4965323811421179  0.5024715351999485
  0.0127248571317907  0.7438749991867719  0.4888814985877211
  0.2593873210475744  0.7391482808003722  0.5018688975406157
  0.4955213850684910  0.7448238289762392  0.5081285808830667
  0.7541513436037330  0.7658580830235396  0.4859600584500735
  0.9925048811982276  0.9978472758902519  0.7504401148413056
  0.2402573514604227  0.0009843004254953  0.7626374187159765
  0.4848413162728346  0.0120183114406816  0.7400889701038199
  0.7570448982198521  0.9962175773063158  0.7564036055978560
  0.9959433507046119  0.2667761684695368  0.7324329231514191
  0.2469917488547760  0.2520509853405273  0.7541877719131515
  0.4914363482289614  0.2497600273795020  0.7604151624804054
  0.7461404302772188  0.2618507840148745  0.7508241252258955
  0.9949910353244649  0.5190506242932332  0.7291781539931572
  0.2511846278551656  0.5051167519947575  0.7521518669381824
  0.4960682033856315  0.4944305044792648  0.7599252672353084
  0.7449879469664902  0.4918999494980677  0.7626538094583565
  0.9824798487679447  0.7522774808656350  0.7499916060192260
  0.2521223416796654  0.7379043847525032  0.7484427734870269
  0.5053627191035506  0.7461615939094332  0.7425072516528277
  0.7578564293281527  0.7511573928387913  0.7487280858660714
  0.1205480763223401  0.1143150763944721  0.1355758164051738
  0.3738525213869276  0.1207134963838557  0.1251986015588661
  0.6297572947199389  0.1150468733761060  0.1240213450534307
  0.8707746280067609  0.1266743884401862  0.1250002207109944
  0.1188237329704934  0.3762142520469030  0.1238023992473214
  0.3682508422364062  0.3745856989402954  0.1219632443765861
  0.6105875322318459  0.4010486944245051  0.1235745698682483
  0.8861665361522217  0.3804199199012382  0.1071635183684385
  0.1472426787624183  0.5901034127288592  0.1293440642548706
  0.3829777481089996  0.6298807835497706  0.1069033993524087
  0.6142041497353344  0.6353082502980227  0.1203274490288810
  0.8837275450175585  0.6113672283864287  0.1134121194441688
  0.1287056549394537  0.8717022209252031  0.1188028386724774
  0.3806996255864600  0.8800366850426841  0.1193040178875428
  0.6155662308223094  0.8866940891400769  0.1216999779911010
  0.8867887114038723  0.8799214732007428  0.1193184292563478
  0.1338513033429937  0.1274344869673917  0.3823388559031964
  0.3471253943362703  0.1237662324007835  0.3902536256401061
  0.6092524299637567  0.1292863717696364  0.3741464216781892
  0.8901884714247547  0.1181793254489020  0.3766629482563246
  0.1328940489428594  0.3681011850844531  0.3692151931417487
  0.3768908944269397  0.3933773205241535  0.3593720724774507
  0.6307291468649038  0.3635925260828919  0.3860692938086187
  0.8742025007227933  0.3768403388945376  0.3822008452361243
  0.1243413724578827  0.6366077545910334  0.3754942987307858
  0.3792952600656164  0.6399872473779737  0.3757652571922157
  0.6212601021201160  0.6308064196259409  0.3769562875401262
  0.8681610603604248  0.6230836203668159  0.3839241886365201
  0.1172299883627328  0.8738560825166130  0.3887409300399163
  0.3733809856145772  0.8914044357536302  0.3653616660447104
  0.6205723834658875  0.8767875691021457  0.3756545436501569
  0.8704730248542878  0.8826688499379007  0.3675179581866291
  0.1051427391838209  0.1291933817948505  0.6416098702748135
  0.3603533885123057  0.1381404554723880  0.6289842330824960
  0.6238673627504266  0.1222372822415462  0.6257014188995652
  0.8907895717296790  0.1286517833481969  0.6176405452598409
  0.1411802567986587  0.3768116577677332  0.6003735663229098
  0.3785652563000504  0.3716954089495613  0.6398129642457721
  0.6032498892893381  0.3882412392827419  0.6244698851420060
  0.8641140597948945  0.3895512492369096  0.6352239261212553
  0.1290807139296657  0.6450774631203847  0.6122926544490963
  0.3650393873828278  0.6319059372828006  0.6368683924261614
  0.6373630209951985  0.6147865983212256  0.6073306849971517
  0.8773016677856598  0.6210557595381168  0.6293914257175094
  0.1338740654139763  0.8787331060955011  0.6153714858830585
  0.3754954001958440  0.8699997860004600  0.6082771188487778
  0.6299096575335529  0.8819021364920501  0.6200467822436125
  0.8724771997505250  0.8599795125568177  0.6253415693256971
  0.1095397208735230  0.1416443405657330  0.8828973901636273
  0.3656950416631169  0.1204375767359492  0.8825813197514079
  0.6339646128283354  0.1140453878608560  0.8775216566020509
  0.8737611676106672  0.1249581654197028  0.8842594154364702
  0.0976364657669648  0.4012717475683451  0.8755879523364376
  0.3621625879907837  0.3916248199705669  0.8775661662603864
  0.6303370444063172  0.3893162779927236  0.8526043483007560
  0.8761303729177836  0.3794047877639424  0.8770753428094780
  0.1288405196904860  0.6349566737974843  0.8613205532175626
  0.3611485461813008  0.6162105383367399  0.8747376438646012
  0.6179197253974360  0.6281764947669251  0.8754132367426603
  0.8664085457046580  0.6460660178405156  0.8670484432428713
  0.1217702541811572  0.8764554870415581  0.8652480275202975
  0.3790214171332038  0.8929041527544717  0.8659585958160214
  0.6130891244491308  0.8629786297207955  0.8766824345871965
  0.8787712930760272  0.8754333791743089  0.8900859751518425
