generated by phonopy
   1.0
    15.9923497217343744   -0.0000000000015236   -0.0000000000010772
     7.9961748610645493   13.8497811253384029    0.0000000000003944
     7.9961748610645493    4.6165937083140518   13.0576988688087816
Na Cl
  64   64
Direct
  0.0018981699832494  0.0056485820479665  0.9932617399030583
  0.2425755594144688  0.0084605676693958  0.9938229781852181
  0.4911376493931189  0.9980976706435100  0.0017761615492118
  0.7484163515673229  0.9996590821632048  0.9992745735642092
  0.9997200387280620  0.2757907809609281  0.9868049148896038
  0.2727562870537543  0.2462767843232278  0.9799239390479058
  0.4987804671120976  0.2474783437979752  0.0152074912293185
  0.7499497652147000  0.2465287773069436  0.0101973092810939
  0.0008140350129867  0.4981288408022993  0.0121571139324100
  0.2374666269941922  0.4981729286648212  0.0184175341906790
  0.5033307593783782  0.5010101631692918  0.0003095779998509
  0.7352363053886360  0.5320955668523510  0.9983184302832233
  0.9910743218595091  0.7645311590075838  0.9940806870329046
  0.2442702865702785  0.7575530845833198  0.0015876921192372
  0.5067505605736625  0.7389552970011908  0.9924274547677148
  0.7275547823201807  0.7392778265534375  0.0088928621539557
  0.9952888103558923  0.9849630981510926  0.2641462240397106
  0.2445243934566616  0.0125333301011472  0.2561944162233800
  0.5073128632518351  0.0185157838927675  0.2535779904783315
  0.7414519791392533  0.0051811824276424  0.2514953337151693
  0.9923735935668868  0.2754907158055698  0.2384247671220742
  0.2680983800416644  0.2368612982520684  0.2430189981779576
  0.4982725703857792  0.2615699822542824  0.2514640092296681
  0.7660151165363235  0.2378462354796969  0.2349396306044437
  0.9921996910238140  0.4911837848218771  0.2549793307663781
  0.2208420287509795  0.5076212313090604  0.2540257682598744
  0.5116050081338450  0.4810899668705848  0.2716514186468416
  0.7669640228600481  0.4772461983452985  0.2531029402497537
  0.9733935800571529  0.7588388899767803  0.2500616236580566
  0.2364260724465016  0.7421519892705305  0.2601252609959068
  0.4945270952678517  0.7615527200193037  0.2397634581538240
  0.7553725998339641  0.7673180736168711  0.2448026790929260
  0.0092888463886830  0.9787859636738478  0.5155082715655279
  0.2609768156017757  0.9893514986113492  0.5010392898093882
  0.5013397264837363  0.9921136196787158  0.4966294383434870
  0.7364649252417337  0.0006078430230511  0.5181088443484183
  0.9949785070465964  0.2419774751352552  0.5095779234053102
  0.2542927064207384  0.2408859656607292  0.5072520932663958
  0.5012031354781945  0.2444737276054431  0.4972272302749219
  0.7481388075554952  0.2607883239764031  0.4982281710764423
  0.0160035043223698  0.4977819939088457  0.5037289617914315
  0.2356478203919235  0.5074084252765110  0.5219895953924162
  0.5195396775139818  0.4770558258629091  0.4963934138785221
  0.7507881234726712  0.4813868082381164  0.5138551494240308
  0.0195006915858510  0.7427640505750519  0.5027150843086254
  0.2563351742975088  0.7345682798581357  0.5112210533905539
  0.4921906637296269  0.7850441530395507  0.4917909826014411
  0.7622103792492312  0.7351926783778274  0.5173952850246546
  0.0072295307504990  0.0029966304631015  0.7467037718380037
  0.2532240691948521  0.9904121557545249  0.7444769069543019
  0.4859416274428065  0.9863699036115589  0.7620467745541505
  0.7333465529478649  0.0003378851127244  0.7650205708060916
  0.9931854791910596  0.2652677219484085  0.7423613434620735
  0.2492204775710989  0.2462892933763721  0.7648890317605517
  0.5006172518868168  0.2391474871168086  0.7715314785364480
  0.7542898202224880  0.2352969002982692  0.7574382131531192
  0.9999096216929677  0.4978357765838326  0.7588311472373046
  0.2579208104175766  0.4793305395089739  0.7585811322129929
  0.4847921108496823  0.5084817308120235  0.7517874155632511
  0.7586002013820086  0.4995334719223883  0.7477496198558161
  0.0144923018735519  0.7258150165621723  0.7354394529586386
  0.2444057016766525  0.7517943734879992  0.7555045220823817
  0.5226545104003145  0.7440201998416707  0.7398422747668728
  0.7382560051714031  0.7513629458144240  0.7642531706952016
  0.1318325532727984  0.1160172594456763  0.1265270968410403
  0.3737793641660127  0.1233666687662883  0.1235318890906129
  0.6220398213841613  0.1202349656455976  0.1272420408418952
  0.8806547428989711  0.1158604905273217  0.1271697293724893
  0.1357588235614051  0.3755720810394766  0.1264439814097431
  0.3626723492212970  0.3668740870175634  0.1469786651876887
  0.6255666542397698  0.3632397675519914  0.1406207951588459
  0.8670588277867510  0.4000954534580990  0.1149038652950991
  0.1315852816350963  0.6066225447204320  0.1385710611012455
  0.3895306226681358  0.6078927642059230  0.1223951623489085
  0.6399311056761945  0.6078388105948573  0.1266287066340687
  0.8847822082535930  0.6169646907066719  0.1257985107681293
  0.1225305859338064  0.8552638240661068  0.1397055485660426
  0.3704056260523897  0.8608813479015188  0.1375053547284674
  0.6127998508513419  0.8742728051300396  0.1188668376572810
  0.8829213140097650  0.8689964313600458  0.1207017238083416
  0.0982543537250897  0.1164772386929891  0.3958448795474780
  0.3831157582894203  0.1308888061161259  0.3657962575122422
  0.6319023199598405  0.1214140945565813  0.3621036125756118
  0.8745042152051297  0.1260121859923443  0.3887486695104185
  0.1151687734033263  0.3815209531525410  0.3846550567805214
  0.3637343374831427  0.3763480187297757  0.3780195980092875
  0.6174786394945199  0.3751519051985111  0.3820223044843663
  0.8746903452696617  0.3633548868970413  0.3860584537569672
  0.1100967369716870  0.6410833393428661  0.3898324099221707
  0.3808789063727451  0.6295965164492402  0.3654348606433919
  0.6294789188859835  0.6256525431216542  0.3670518473774214
  0.8682056175941650  0.6103710392820507  0.3858428521022282
  0.1330224461314542  0.8760372643101257  0.3649865208315868
  0.3702852063435649  0.8756197261143172  0.3789150956575858
  0.6377740957708995  0.8747376339147866  0.3587957957490702
  0.8636226943675167  0.8778013266186599  0.3785188503449747
  0.0899929884550332  0.1547386591190762  0.6337315292281612
  0.3711384883288239  0.1453118145329237  0.6239084127043462
  0.6377377397763195  0.1178949316033923  0.6147570972265809
  0.8702293100124112  0.1196602381502623  0.6404204339388682
  0.1429850218747732  0.3522235572952565  0.6296424155932949
  0.3768960698541515  0.3689791738127811  0.6177062942414034
  0.6126404758831437  0.3778353436940232  0.6320663071742920
  0.8830455093139566  0.3757902237499299  0.6309680481229856
  0.1267046094131467  0.6307802244116556  0.6166440547679749
  0.3872093191655103  0.6252317828278952  0.6209119545079170
  0.6273708580992341  0.6242619656468374  0.6285318206910180
  0.8804562568710897  0.6294879573933976  0.6229573245574619
  0.1283218593158787  0.8698585400645954  0.6299208334016402
  0.3922416334222036  0.8629205463751213  0.6396985474378328
  0.6229579124770315  0.8708978209565673  0.6293816575174754
  0.8681593575151157  0.8755562614250887  0.6307296211926277
  0.1374629718342470  0.1292641921549553  0.8730196467235608
  0.3811974870629613  0.1275474172039019  0.8675827839550356
  0.6392551382765422  0.1378527468693169  0.8778148449650380
  0.8842638927498992  0.1236128630496595  0.8852909395282579
  0.1288973524465077  0.3609246885378571  0.8807312798951317
  0.4004448002240614  0.3560786988383691  0.8722195039279718
  0.6178108907364290  0.3812136309170935  0.8795877691343639
  0.8737253445416053  0.3664312418271998  0.8671442052109000
  0.1453113512780207  0.6209908466031255  0.8751624541333681
  0.3725224353719627  0.6285389644493732  0.8666632140086491
  0.6198795161570626  0.6261565040990718  0.8780457752105522
  0.8820023345004010  0.6023547188082363  0.8834063368080634
  0.1206218606404632  0.8641160984070928  0.8899839036095885
  0.3613624985894105  0.8921227929201694  0.8624362945481899
  0.6235010755552804  0.8665494461452574  0.8791480817356154
  0.8814043237203308  0.8571563969654934  0.8863361412112717
