generated by phonopy
   1.0
    15.9923497217343744   -0.0000000000015236   -0.0000000000010772
     7.9961748610645493   13.8497811253384029    0.0000000000003944
     7.9961748610645493    4.6165937083140518   13.0576988688087816
Na Cl
  64   64
Direct
  0.0089611770033918  0.9977297349005644  0.9926039699281806
  0.2536705973838444  0.0039889320767075  0.9907590921914564
  0.5115474588648341  0.9964231088117841  0.9936116639369509
  0.7470813900737517  0.9988547167941362  0.0138888883572923
  0.0025375753623796  0.2429344223333123  0.0064781011396759
  0.2661572777705394  0.2379537419197905  0.9871102268444168
  0.5082919093898748  0.2502610571811210  0.9905442551261073
  0.7566339866749801  0.2458564933598159  0.0135305184635987
  0.9941976571246960  0.4992799178937059  0.0039857816613044
  0.2417809849773707  0.5121605777420570  0.9884628562266070
  0.4992893783969087  0.5081990609478655  0.9948053055145358
  0.7613727438222200  0.4994261679010961  0.0117410803046473
  0.0159104557308786  0.7574473531810639  0.9997475637878438
  0.2512104711571125  0.7586449294772537  0.9886839674896600
  0.4916122375892346  0.7639272089517133  0.0081075746454866
  0.7447321451832190  0.7562019349480376  0.0034722680217448
  0.0007688956303674  0.0182562272765473  0.2322489309914361
  0.2480675725479911  0.0006062237126549  0.2433889727126900
  0.5050047234558471  0.9926641641961035  0.2478873552136484
  0.7512459488443639  0.9853553193304061  0.2472126149205158
  0.9969600469805200  0.2486769921678305  0.2576533862954454
  0.2668931429943896  0.2333856313774896  0.2325328880787320
  0.5069176511765672  0.2520883168287588  0.2566083763303691
  0.7479863081759772  0.2643295097493670  0.2554253887923872
  0.9902717162600595  0.5159377591213988  0.2466301629916376
  0.2552608386817789  0.4839934709436666  0.2583461710408069
  0.5087060378296581  0.4908789638153309  0.2432792364471073
  0.7697817656772942  0.4898809330318928  0.2493572271749588
  0.0030436074959704  0.7275832253282453  0.2647926101915303
  0.2645933795517708  0.7528916192524552  0.2499063019597207
  0.4889278373029596  0.7429141590729985  0.2701386180582542
  0.7485509760097744  0.7495912502889109  0.2457385556197994
  0.0021530821938744  0.0060280452379655  0.4983632668891158
  0.2628791160556946  0.9937472333716267  0.4878284261987136
  0.5158220650634606  0.9896557182554648  0.4902332127450039
  0.7525016276818367  0.9920471370837108  0.4980580044329098
  0.0113765535240162  0.2538571480362353  0.5012830222198088
  0.2562982911851851  0.2445743601164682  0.5020599172185557
  0.5321668900465151  0.2580763565864567  0.4706968469131504
  0.7475854301441262  0.2347048123550502  0.4964211738939373
  0.9998743035866717  0.5023292509288252  0.4910893662780503
  0.2653332507963876  0.4814973801112492  0.5153442306238851
  0.4947953461782769  0.4955635149511430  0.5200156949080669
  0.7566537183060622  0.4758257446231638  0.4947165532335581
  0.9963728468247056  0.7618224438228729  0.4984010244813827
  0.2516259735246815  0.7452634553068018  0.5109151799760718
  0.4903935823052351  0.7624240350719563  0.5013923647789142
  0.7522907141015307  0.7649941117679587  0.5013566563147396
  0.0216799176241772  0.9950938552242180  0.7576783974978935
  0.2476165773130042  0.9901498988894950  0.7514206839716470
  0.5017867063168682  0.0098533031325617  0.7381995966881925
  0.7623532555710484  0.9774925144432813  0.7568794443805680
  0.0204888446902522  0.2340773979693635  0.7424044651624383
  0.2416488641899687  0.2564348931522699  0.7539425338607522
  0.5139132614385004  0.2555400493419760  0.7456597201773142
  0.7572394954457737  0.2394977069162173  0.7427316848855988
  0.0215265628052157  0.5061057307171772  0.7317800037544503
  0.2490101559342945  0.4869684200421781  0.7578854956633286
  0.5080417152230678  0.4907224058699143  0.7491463844472531
  0.7442801529344076  0.5098630053712625  0.7557900574191152
  0.0177757062605522  0.7413114540313098  0.7531681662864098
  0.2627895007724894  0.7531827332947514  0.7480881690534265
  0.4899218270313325  0.7538093913153611  0.7463974978699753
  0.7371901326632839  0.7560838870871578  0.7610845935846440
  0.1161940568621360  0.1290295068560609  0.1285064554380367
  0.3721123714182832  0.1323606722979294  0.1197057411407711
  0.6190465168758768  0.1284654257825026  0.1205089254615395
  0.8782152502932853  0.1184255856203520  0.1211543581589796
  0.1388304947659686  0.3693398543514950  0.1247589562767256
  0.3770650496777760  0.3545366418771754  0.1554273003360480
  0.6057333315419583  0.3770558585484569  0.1469176235661688
  0.8712341175667963  0.3756449975009294  0.1438631106394918
  0.1391281317557042  0.6397315627232872  0.1149038185067953
  0.3805504719534677  0.6167665453102851  0.1368420494687666
  0.6261226954012935  0.6270367988615027  0.1347518572207047
  0.8866203986719474  0.6238966852880556  0.1236544005607687
  0.1322625860614204  0.8702905554274996  0.1251193913641607
  0.3672024646311203  0.8970788593559590  0.1228720902435540
  0.6260605279550835  0.8849254530687706  0.1183517537565293
  0.8779178794655896  0.8859400472808336  0.1111297642002644
  0.1159646385348748  0.1388122534330156  0.3733898604777718
  0.3823450647306740  0.1323379832345603  0.3592274270003687
  0.6240225720403381  0.1316719972215638  0.3703077428785586
  0.8925045487237119  0.1252125974485507  0.3725909023677946
  0.1333108957884868  0.3575645044056729  0.3671210969230911
  0.3729756445496085  0.3686389751125285  0.3677928132366595
  0.6311353743625323  0.3652794715396224  0.3713850832777151
  0.8619365461078784  0.3913349054991355  0.3723596871130228
  0.1271965950189825  0.6204189453810648  0.3603076548656458
  0.3822927127810105  0.6147612800536026  0.3786507325998595
  0.6139323478598760  0.6249359835606910  0.3842188379928883
  0.8764162058170942  0.6349384438354406  0.3828142832911681
  0.1241240801254593  0.8801824226815093  0.3742256673029132
  0.3525648471278574  0.8763171750788331  0.3778086189821115
  0.6245759852695887  0.8753901063683583  0.3641253421203672
  0.8788540904703012  0.8780420592121145  0.3827987318853497
  0.1296249350687023  0.1145604369595363  0.6116764684369657
  0.3879618128768306  0.1271805309973454  0.6166969289771709
  0.6299038401052633  0.1196480238830801  0.6372939138094196
  0.8787485641864503  0.1265622952940369  0.6204792243020176
  0.1273629482707437  0.3797306327361881  0.6165829612228482
  0.3788960740088424  0.3567817147269889  0.6454624638880915
  0.6283745011080453  0.3735181482242919  0.6301374472814353
  0.8926137619001140  0.3675257222573082  0.6216350178489662
  0.1222729900700869  0.6172109941784201  0.6299803019090203
  0.3855977080889440  0.6165541896059615  0.6276798709731375
  0.6387768526111319  0.6389491884818299  0.6164698670404336
  0.8603873639722446  0.6340106698189341  0.6444372408116924
  0.1339503842012113  0.8810000289762777  0.6020703796126849
  0.3895958870139883  0.8877449791551030  0.6158044557363779
  0.6149431245633126  0.8665320679961309  0.6361721961285950
  0.8732149695501562  0.8766643894694285  0.6220204299569929
  0.1227250494310940  0.1257293831626444  0.8939632878259458
  0.3857287644007161  0.1106357680770221  0.8819293041675671
  0.6167609862511358  0.1430765699836739  0.8702007716877344
  0.8929444511847446  0.1164882013164726  0.8743557347278537
  0.1325902583382354  0.3719793706707715  0.8720553568567546
  0.3690681464933457  0.3785693697964638  0.8665799587830230
  0.6414507426457996  0.3701571599439407  0.8690787110828668
  0.8807038262256497  0.3625740382116047  0.8867775147008005
  0.1216327440150722  0.6425441839002537  0.8600883112876128
  0.3752369834134898  0.6377555017417311  0.8623148526472973
  0.6085302115994604  0.6255715394385553  0.8737806152968031
  0.8650458429969060  0.6423289821732006  0.8689719852453521
  0.1173300693208933  0.8804519541057558  0.8785222721677853
  0.3851508892871811  0.8558207425594846  0.8725514113258527
  0.6179327980499938  0.8737223434287744  0.8821802201520610
  0.8809594626307604  0.8551542246851389  0.8892947586520745
