generated by phonopy
   1.0
    15.9923497217343744   -0.0000000000015236   -0.0000000000010772
     7.9961748610645493   13.8497811253384029    0.0000000000003944
     7.9961748610645493    4.6165937083140518   13.0576988688087816
Na Cl
  64   64
Direct
  0.0001742407789370  0.9952722762160655  0.0055750834123836
  0.2543874095951087  0.0120475543117997  0.9870381283473886
  0.4873712687648367  0.0104416195451028  0.9996328607581454
  0.7389811072140463  0.9943806173918669  0.9877913995310765
  0.9988706419709408  0.2527804555265454  0.0120206221735127
  0.2544590247690097  0.2494319633737627  0.0082527564763214
  0.5024884099548570  0.2488710964863798  0.0021393435060506
  0.7705006725146242  0.2433703052455545  0.9992093165017727
  0.9896457325986102  0.4965988341624653  0.0049067820745542
  0.2635638999010703  0.4939671341509468  0.9913059852931488
  0.5013492601950462  0.4980377028190563  0.9979478574858237
  0.7475095729550779  0.5111812523017588  0.9903202709469543
  0.0001263475819155  0.7348916218890655  0.0069330209849394
  0.2509323925929185  0.7403720564837225  0.9917355749766606
  0.5181873211809935  0.7379723709093787  0.9898301634427153
  0.7545477872078039  0.7377553046220540  0.0034351808716668
  0.9788063031534830  0.0130504429580793  0.2517654092256328
  0.2625912113004619  0.9902259147336148  0.2444426168319734
  0.5111980222852046  0.9908527600835481  0.2531840158250309
  0.7652640154802459  0.9914160255208881  0.2418814597732616
  0.9932685363656637  0.2486533157262987  0.2379526206214061
  0.2479546412904337  0.2530556881549152  0.2537603584564520
  0.5097904558673942  0.2391879233427868  0.2686408639041395
  0.7599820081691443  0.2524897021872784  0.2504355206005511
  0.9995434656088380  0.4947641121339459  0.2503327935940725
  0.2479884745394186  0.5014400729840096  0.2386964588261555
  0.4972615934513300  0.4971313534053466  0.2457359762717897
  0.7546349356915557  0.5058322985117328  0.2438849607081579
  0.9924986687906006  0.7500862589510320  0.2561677514537333
  0.2403633365198601  0.7302668539634154  0.2635599460256489
  0.5170496464851854  0.7679883710246962  0.2268415642556554
  0.7550097613359739  0.7490056515447159  0.2470035125608782
  0.9972499656261360  0.0169408793460980  0.5048878139812270
  0.2465878948783894  0.0094005082164266  0.5014787749343013
  0.4950602164338220  0.0066011186139008  0.5061777898277041
  0.7484631732829208  0.9898334945782511  0.5031949329062088
  0.0064573736634020  0.2501404597559607  0.5051119282546940
  0.2403591648076042  0.2369384419891921  0.5066143663747009
  0.5026920746817345  0.2427186595212756  0.5051296250755147
  0.7464323484287166  0.2359550389007630  0.5067096821420551
  0.9826179733214015  0.5154159872875643  0.4920318197001401
  0.2564624161413166  0.5087166561557067  0.4901870018752738
  0.4923336768208353  0.5123799968695041  0.5011983195522911
  0.7493598435459410  0.5086634170772701  0.4994896410405680
  0.0038422848447125  0.7495631641238786  0.5160798295220825
  0.2480353133944305  0.7555708133444120  0.5031782794075500
  0.4961413322007913  0.7526029952546289  0.4934052710196357
  0.7354539835618621  0.7594019573034114  0.5068615278829420
  0.0018308205213301  0.0103417774586731  0.7371032382691638
  0.2423979854730429  0.0031924714892027  0.7627679797718069
  0.5085360142379374  0.0047486841756080  0.7385439494901488
  0.7455559841863375  0.9831469514534452  0.7572535899215946
  0.9952844357409070  0.2613919950121463  0.7331744470467938
  0.2500417263683692  0.2582412543892345  0.7556876258351424
  0.4933996454039620  0.2564213362639176  0.7505265894019361
  0.7388069122559642  0.2727955306590875  0.7372396935103572
  0.9938300623979135  0.4925919693627762  0.7591136561694715
  0.2398454519179591  0.5061088667411238  0.7520851328345435
  0.5023938287533763  0.4596973635756528  0.7706015255802785
  0.7486172788266573  0.4995820858227650  0.7582447128818306
  0.0112614436294659  0.7620100170632516  0.7385171728850389
  0.2244176982943776  0.7636850400859541  0.7577668970078987
  0.5158182647023659  0.7518271366573636  0.7404814526666377
  0.7447990798194251  0.7538802085378574  0.7463096901992453
  0.1331623617224079  0.1269178242734135  0.1164341732689271
  0.3824729918109913  0.1135241607048441  0.1332075178904132
  0.6304697745326067  0.1186594650721957  0.1286156564910497
  0.8919646166726679  0.1125759456772216  0.1337075895920437
  0.1413713103988415  0.3515980683118419  0.1355137328879671
  0.3847087711009441  0.3799487497516096  0.1064586068930151
  0.6069790699411504  0.3881741028008581  0.1251078140579020
  0.8734504438289465  0.3634375013557704  0.1240176999163124
  0.1215252568605766  0.6330875862562468  0.1302984081831360
  0.3761996740633471  0.6146723691213098  0.1478109812200630
  0.6122712440784480  0.6291774443914611  0.1263235739868787
  0.8746952163510336  0.6248294864103711  0.1087961438084178
  0.1317768384811815  0.8803110396713172  0.1308639258835196
  0.3848683087128037  0.8745918117822072  0.1228822704089172
  0.6242070795836401  0.8801798297313673  0.1171521426758178
  0.8749555705953290  0.8702979207431083  0.1276708414006881
  0.1139135256916225  0.1242934688763916  0.3737829244708762
  0.3687242162853382  0.1223971926807495  0.3680029897302703
  0.6289417659141555  0.1293410509606683  0.3743303618432428
  0.8848989795040607  0.1279441083581722  0.3664021871853684
  0.1132314154957566  0.3699128561450268  0.3831604437193800
  0.3788449087777671  0.3747119933484890  0.3653127699826956
  0.6320149492899712  0.3664317187923732  0.3623726145226923
  0.8665378590673791  0.3869268726400417  0.3753071993922162
  0.1292982632799118  0.6196344258971717  0.3720693311543112
  0.3682655647391830  0.6251786667527872  0.3820428850624797
  0.6225358956074794  0.6466083214890208  0.3780896991591826
  0.8752243907088310  0.6351442719783772  0.3749991176285395
  0.1233469114685716  0.8837976481059535  0.3688573162370321
  0.3567309836852556  0.8839759560458669  0.3794845364432985
  0.6396579165084210  0.8725378163312805  0.3739486415893155
  0.8588083814051383  0.8944537759247195  0.3721446146796706
  0.1266598160525672  0.1245833107898406  0.6340429641745677
  0.3783520607739757  0.1111765889020366  0.6284004516810276
  0.6429860245464651  0.1099026379023702  0.6150706884291790
  0.8676037201475861  0.1342020862170935  0.6252599190780431
  0.1353351121983423  0.3832521873950117  0.6147602149254022
  0.3669939897147595  0.3691870043130105  0.6332365762813177
  0.6419035039470609  0.3718883018301894  0.6184045030067139
  0.8857500344558832  0.3751608454952868  0.6072231392231079
  0.1218339833221625  0.6150810199714289  0.6295249672454839
  0.3808963056956099  0.6111284028655680  0.6330927912525933
  0.6199357394373544  0.6363867438364224  0.6209319921705037
  0.8721109630451691  0.6308847180167325  0.6122299957780784
  0.1158811890603162  0.8921536936305605  0.6080057786275794
  0.3780898255556305  0.8878892682634383  0.6242674026857419
  0.6158564971470271  0.8732418435366752  0.6282463897720878
  0.8734641349937426  0.8673654008731281  0.6243752026572278
  0.1364412694314474  0.1147120401181306  0.8829652976837449
  0.3718404358664348  0.1361295546121641  0.8694994560647963
  0.6168649690614418  0.1290747978468150  0.8654287085517547
  0.8743907991915834  0.1349667582129472  0.8778808592705299
  0.1146471986284460  0.3722872755723883  0.8896586392952588
  0.3766392802861488  0.3625125929133153  0.8861868865154686
  0.6158382250336996  0.3720028205353940  0.8804954012156777
  0.8778155574597423  0.3694140587195143  0.8803097674708654
  0.1239150560432843  0.6103595586598167  0.8733271978126318
  0.3868295631876413  0.6142078587240566  0.8693237460055472
  0.6331278495910231  0.6287646462304203  0.8721274430861155
  0.8640775905889291  0.6298412196516244  0.8754062284464230
  0.1176800767910403  0.8628431350200039  0.8793475034806452
  0.3820393147293161  0.8800844377516764  0.8709071039300090
  0.6318442511255231  0.8800156039809881  0.8638261206335708
  0.8631512129018585  0.8822242964390917  0.8795302312151903
