generated by phonopy
   1.0
    15.9923497217343744   -0.0000000000015236   -0.0000000000010772
     7.9961748610645493   13.8497811253384029    0.0000000000003944
     7.9961748610645493    4.6165937083140518   13.0576988688087816
Na Cl
  64   64
Direct
  0.0029119741171993  0.0176475460478625  0.0006322672812496
  0.2482379978588620  0.9704650273680884  0.0150388764454804
  0.5089441016784567  0.0008236333089685  0.0086498967579296
  0.7453815319910903  0.0259545448752089  0.9747606144097736
  0.9957634680410368  0.2628764387546854  0.9917581035459476
  0.2555006507890802  0.2416378679316520  0.0040568770627009
  0.4771813762123074  0.2504152754346588  0.0070726954898131
  0.7457277193530666  0.2342459031515600  0.0077371567630256
  0.0026047834039416  0.4833896408495680  0.0110228923621317
  0.2262955045960089  0.4938057136073314  0.0084175637191186
  0.5197762224867484  0.5107143590362578  0.9911764182035241
  0.7507252776230310  0.4914132026766522  0.0148977184089536
  0.0011432839343649  0.7357004349773771  0.9876007029492132
  0.2648425136297224  0.7595335639429565  0.9642971994918542
  0.4913024193826435  0.7573900142560414  0.9960605470350713
  0.7331283934808989  0.7530286025342335  0.0048940625024194
  0.9862823426989364  0.0077215726346310  0.2619964896782739
  0.2444231592403125  0.9958213836501779  0.2481660212282513
  0.4975727327412557  0.0350030802210470  0.2432236884574050
  0.7491674453183971  0.0069533009332933  0.2521969190841038
  0.9885033668000236  0.2658298582538662  0.2579061726709976
  0.2577850157168562  0.2435290499794605  0.2534789678789146
  0.5008925190635485  0.2413547052241286  0.2494872861480447
  0.7577834223789821  0.2364945989728801  0.2623383193352481
  0.0101516447392124  0.5084158767796656  0.2615242256362530
  0.2551519657112674  0.4944471127930390  0.2403957359196500
  0.4967028251507428  0.4891190694541959  0.2555866070297717
  0.7604975660007465  0.5002343956814795  0.2615005484711144
  0.9859610881933081  0.7561565809261274  0.2481623042682299
  0.2433204777464760  0.7472663897438927  0.2693757792365996
  0.5014342103637370  0.7589431580205341  0.2428682782093539
  0.7385319542539506  0.7390034156070885  0.2471971933237151
  0.9918227282146920  0.0040580586141238  0.5040746546218773
  0.2513598927611123  0.9932787519045264  0.4983412761000514
  0.5124346732596771  0.9924578696126906  0.4940689123563165
  0.7604460630012186  0.9805793910540068  0.5005778381454453
  0.0078779106121104  0.2270226676880276  0.4898452623713803
  0.2409074997701221  0.2568714214902643  0.4997464896716989
  0.5065700599122338  0.2508156975331336  0.4811736649689413
  0.7412555744101957  0.2555733850327505  0.5051625765958230
  0.9873260663054587  0.4872048616175864  0.5215345209175083
  0.2696476127422832  0.5133405907304281  0.4700766348243544
  0.5022723305737873  0.4851184913120963  0.5055102650616369
  0.7659377429929801  0.5111683890421380  0.4869035092619065
  0.9976891131651594  0.7602034988512691  0.5055599896190193
  0.2566345872641064  0.7499618237587083  0.4898483857760925
  0.5082283186055154  0.7373276142030960  0.4988748786838949
  0.7443565129072665  0.7515512481061473  0.5048583333543901
  0.9918676519565603  0.0112270074833407  0.7447367081522033
  0.2586167912056946  0.9996263066896575  0.7346988488528857
  0.4944491262317247  0.9736163790576657  0.7537929547850498
  0.7562492853005105  0.9981537954811952  0.7448171172794185
  0.9999865312940235  0.2498822294048549  0.7407630332503441
  0.2500655556143664  0.2594236347011921  0.7437033775753384
  0.5020167509651403  0.2662290096794461  0.7489290337942859
  0.7530811808055514  0.2542458038063666  0.7635625638884228
  0.9848551956720089  0.4914647451294396  0.7713036149220293
  0.2685151392902930  0.5076991706147520  0.7488035275872610
  0.5033412270056262  0.4913593258552561  0.7334277977349646
  0.7514125069085358  0.4985142869145833  0.7497460591978885
  0.9897952781627395  0.7561484972851628  0.7493745553238969
  0.2544861542443545  0.7424819805355896  0.7386103637785982
  0.5116195800212202  0.7370363824460038  0.7532137554993177
  0.7521735123244423  0.7498371955652808  0.7512993952739256
  0.1294819796385929  0.1127869478791512  0.1376902712427875
  0.3864187576281648  0.1162961385102043  0.1343318037927591
  0.6139315481185315  0.1424217687877076  0.1099809595138617
  0.8730927883647150  0.1262841739485051  0.1246008824845261
  0.1365175739906749  0.3888466285135603  0.1076327868177057
  0.3686371017892848  0.3725824973008232  0.1358850346129370
  0.6159067441654068  0.3760812141356235  0.1321382133827934
  0.8859443200442871  0.3815884960808569  0.1085782415384439
  0.1368978075852045  0.6210732249858352  0.1286781787912740
  0.3826074522744766  0.6215249322658001  0.1308490357904636
  0.6173791925567351  0.6395471806134513  0.1090031580972564
  0.8777580908225302  0.6193447343432161  0.1296135620438730
  0.1273816175146209  0.8805968613446962  0.1266489873676103
  0.3689372401994323  0.8550777591012803  0.1337305472443304
  0.6210284770183072  0.8692981092100230  0.1312646625882007
  0.8928279905849462  0.8823838013042198  0.1294734578854083
  0.1201458196035015  0.1217015996459782  0.3752873579766161
  0.3736059142609076  0.1415438563204416  0.3632817318474219
  0.6328259448103605  0.1196444926340852  0.3672165462082930
  0.8574253996101384  0.1248984926348479  0.3729755082334273
  0.1143310842359682  0.3859559564861176  0.3698819966831973
  0.3590898742792505  0.3660825575599768  0.3956525567866901
  0.6247018848127669  0.3806683179682446  0.3727430810474193
  0.8862208983662410  0.3712978447788720  0.3631616479485789
  0.1054557483438440  0.6344997549389497  0.3753103456204923
  0.3717372469371758  0.6071039798217716  0.3779945257538095
  0.6266414793195707  0.6293537483735901  0.3880843748492243
  0.8742126887726950  0.6214462652556805  0.3645825734220598
  0.1155734666618957  0.8817091187630048  0.3855924593479328
  0.3730357948478252  0.8799680821969180  0.3831864003879590
  0.6192210799507821  0.8770144148425382  0.3653870298712180
  0.8816655543339619  0.8709289124959643  0.3703251201694864
  0.1145818381557947  0.1257679562465975  0.6253583918613739
  0.3771696860410683  0.1303756147989187  0.6310654710758711
  0.6175404703401064  0.1291331802476495  0.6211504616060400
  0.8564156971273434  0.1404412545050021  0.6261350825892232
  0.1276669881089743  0.3549437610933655  0.6288456526822145
  0.3680450357459675  0.3845963636339896  0.6282344764423466
  0.6276477492982722  0.3772618284777012  0.6410750753737322
  0.8849689729588044  0.3759078495092950  0.6189906640500099
  0.1331397606115646  0.6029439447021860  0.6256055817564260
  0.3632584353526837  0.6228423738005689  0.6311196325340664
  0.6360591729796863  0.6197954199317905  0.6300109311317093
  0.8899719810423663  0.6085903094469128  0.6252482883503856
  0.1195568636540494  0.8809190639869187  0.6241022848285026
  0.3646836258764781  0.8735807505260050  0.6355978685325657
  0.6198418086442731  0.8855777313801511  0.6189367764745783
  0.8880899221572621  0.8567197929402279  0.6275749287971412
  0.1265285754292929  0.1150246423066741  0.8656817397100316
  0.3833322866908658  0.1019011191318006  0.8886763929895954
  0.6267985499016158  0.1362503216963311  0.8650007342059740
  0.8625019641448732  0.1269514598183000  0.8922491913924429
  0.1244396161524183  0.3786966553619113  0.8701564951150430
  0.3794432986318733  0.3776602344087371  0.8711105871282263
  0.6109230765923879  0.3847366031916988  0.8816914444027694
  0.8657306084406491  0.3845686003283017  0.8838772439892130
  0.1352723649974649  0.6096482255071657  0.8863526517773616
  0.3814962425054998  0.6197124044966377  0.8745703767230547
  0.6345635357658455  0.6209302468719182  0.8759545534771154
  0.8879175080609738  0.6274032437079042  0.8711035628911573
  0.1301163691106116  0.8578962184312117  0.8872691388308598
  0.3679938228151183  0.8856951020689747  0.8633608006608482
  0.6273220035006214  0.8840493059934131  0.8606375352457630
  0.8611956260487013  0.8841340387874455  0.8812761354231582
