generated by phonopy
   1.0
    15.9923497217343744   -0.0000000000015236   -0.0000000000010772
     7.9961748610645493   13.8497811253384029    0.0000000000003944
     7.9961748610645493    4.6165937083140518   13.0576988688087816
Na Cl
  64   64
Direct
  0.9984748648413101  0.9995605275596748  0.0005197012147048
  0.2578576124219411  0.0163995076792561  0.9963228725191372
  0.4974174388218232  0.9885780731660310  0.0134359147914365
  0.7471029019405945  0.0036410428224871  0.0178917431855357
  0.9932161168622885  0.2588506273412182  0.9975044190343544
  0.2532287312749070  0.2490838668806217  0.0032993598402519
  0.4913349496197033  0.2460611381960960  0.0020875641146832
  0.7598851276761065  0.2495322787813273  0.9945216217394206
  0.0085814388534159  0.5029820140610699  0.9952887006086497
  0.2308934258442453  0.5085261273855252  0.0141121119411772
  0.4984262589793950  0.4955399740374960  0.9989015607851846
  0.7420634083908322  0.5113222998229939  0.0051448706455765
  0.0105228151533644  0.7488817107288029  0.9950105749419204
  0.2650819820185001  0.7409629515511331  0.0064728734023769
  0.4863510326779154  0.7630444330477677  0.9971120286216777
  0.7494274770491026  0.7350974028898087  0.0023130132813407
  0.9901468082933144  0.0054828042461928  0.2476580283234921
  0.2390291183029348  0.0057027997470701  0.2372391651448547
  0.4918993096723407  0.9868511917412988  0.2483700459155211
  0.7506358473411366  0.0067776457727106  0.2459242013469837
  0.9967259424184268  0.2525906108645489  0.2343789024289331
  0.2609077663939632  0.2496803344371809  0.2553602646058859
  0.4937748277255675  0.2573573479346218  0.2521697312269024
  0.7500947657256045  0.2377429684689809  0.2637361051385192
  0.9987617923579294  0.4955692816331544  0.2618284899894822
  0.2459543709959182  0.4883075508548901  0.2646973640360454
  0.5119827999481275  0.5129393508757363  0.2380058896782568
  0.7554934395100035  0.4884737694082089  0.2593072678910299
  0.9956303337700622  0.7533356768380063  0.2446109913978008
  0.2458992789168324  0.7563969311529406  0.2508959659592980
  0.5182985687682163  0.7375363659653699  0.2569810172279518
  0.7507748229584569  0.7560451208406560  0.2508756220330127
  0.0146094110347413  0.9992209078126070  0.4939278011080960
  0.2511484204984591  0.9957950814182500  0.5195219961160541
  0.4978060170463659  0.0129676719361546  0.4982681502573561
  0.7414175277718469  0.9990060149089205  0.5108051441512115
  0.0092973352180293  0.2295706556273975  0.5009873290420128
  0.2443319454794425  0.2581683970397736  0.5029611052092617
  0.5080254718387818  0.2388967134180918  0.5188890336433148
  0.7610071604230482  0.2425013435556573  0.4993388680428437
  0.9914522852344110  0.5138389269953172  0.4880854879983630
  0.2460193062446302  0.5196019289470946  0.5071970867657465
  0.4969196698434303  0.4967848668338863  0.4919318741728610
  0.7505904962016411  0.4944802395193425  0.5015888455650962
  0.9948323185086030  0.7607741933954393  0.4925785735780931
  0.2548043190998990  0.7463270601589569  0.5035391056873048
  0.5118752437137708  0.7308783573643454  0.4981464073707161
  0.7559343815357318  0.7481267234712811  0.5138178671324803
  0.0050730744910996  0.0129469020032514  0.7603195751126426
  0.2394819508161859  0.0158159650627935  0.7473937481438302
  0.4839519229754787  0.9990276064139327  0.7523803760315138
  0.7640328653561422  0.0180870678900033  0.7246094562287477
  0.0028385591380077  0.2595869926930785  0.7457188491841816
  0.2687019405087869  0.2332293140367325  0.7613021649129461
  0.5033936050784824  0.2471971126784098  0.7579191347434993
  0.7294677308105229  0.2498199911462091  0.7471901120277348
  0.9890612051926623  0.5122168563941389  0.7596063410246597
  0.2385852188235295  0.5089357481744985  0.7552976618525972
  0.4954774284309096  0.4947730308317327  0.7665540563905960
  0.7335220325840524  0.5075005536361505  0.7562104492063952
  0.9896831877310923  0.7550242092630932  0.7627497882502395
  0.2478380544036700  0.7537359469279679  0.7401289946465681
  0.5078229178785572  0.7432521812289554  0.7447352035087582
  0.7326971012496021  0.7684151020861100  0.7502862321686656
  0.1317251668401794  0.1199635042274336  0.1223209412604429
  0.3728437254344541  0.1313488926605637  0.1162374467014922
  0.6332502545916950  0.1196545381009329  0.1138235153237576
  0.8725967221877009  0.1355550371405309  0.1213086371770682
  0.1140664699633159  0.3731704801926787  0.1312945882745321
  0.3805847226615130  0.3595882887840128  0.1338819650433976
  0.6212581089279205  0.3739698607589206  0.1231280876092476
  0.8662214480565383  0.3742761777612359  0.1423377456790064
  0.1154894069673157  0.6249794893866745  0.1316754308197833
  0.3905498621944865  0.6205521500238695  0.1103081741017245
  0.6266956122240495  0.6201908599669752  0.1119695869027885
  0.8662824633857936  0.6263469795894903  0.1434634232481577
  0.1193665372646479  0.8756787892161607  0.1144719213609760
  0.3838495601232469  0.8729369428068572  0.1147262306388286
  0.6220904805792167  0.8652066475433763  0.1230224210703933
  0.8815681974953345  0.8687246063331574  0.1231762762834323
  0.1263345592884662  0.1167443703827427  0.3761585431444787
  0.3781689525069144  0.1232413491850808  0.3771271722700381
  0.6200076452291594  0.1328547365058562  0.3663718364101582
  0.8740215457921880  0.1288528739365155  0.3755075756971435
  0.1311060478265564  0.3786915010081459  0.3635829309960276
  0.3836298246710027  0.3690541003928074  0.3623354166783282
  0.6199868459324914  0.3759677143322883  0.3687922137329149
  0.8772689280210541  0.3660566542516746  0.3724164812693111
  0.1312891478069882  0.6233894872549655  0.3674915638762150
  0.3755281476631046  0.6203780074368257  0.3770223941384062
  0.6089852765283507  0.6352453617957906  0.3661736285934295
  0.8729546282666460  0.6297917411885963  0.3754418495034822
  0.1285275491500251  0.8746469139164765  0.3736520423160331
  0.3590676665787175  0.8812191755599486  0.3852604906117223
  0.6244027317584707  0.8763003857152309  0.3780786419983814
  0.8693176156478943  0.8671727238461219  0.3905414855568201
  0.1203216211080808  0.1131834455819121  0.6453202160263903
  0.3847214909607169  0.1213202878570888  0.6191409703415168
  0.6194781412462289  0.1240827320683935  0.6324733671473394
  0.8612272925371215  0.1330009259762954  0.6150602306722192
  0.1324161874820153  0.3886255789591166  0.6250403110854590
  0.3574543307671892  0.3762234773032604  0.6269537865054691
  0.6481092277065277  0.3625120652876613  0.6130877292723366
  0.8717862262699518  0.3745736043291614  0.6255598310311400
  0.1203751083102552  0.6397554260667019  0.6244902411219877
  0.3746749910950629  0.6383332972111371  0.6238778512391141
  0.6317384654658267  0.6118788205365863  0.6247722585451430
  0.8621671387841312  0.6212225615004986  0.6353871579675603
  0.1320838503595078  0.8779260074645088  0.6186468133664587
  0.3650159100317600  0.8934330549111118  0.6300656357907226
  0.6419587152503616  0.8711818013544709  0.6085059752882239
  0.8897607923171962  0.8667940679793424  0.6210944602833052
  0.1156381129876763  0.1203018217244051  0.8743416824735591
  0.3868939342869279  0.1240185949912033  0.8673115082104073
  0.6475088229678891  0.1187304850840558  0.8777693382022554
  0.8687546820512447  0.1406611762574507  0.8665247799644676
  0.1208180815337775  0.3821769629883219  0.8686562315100806
  0.3738063017759666  0.3649334451737308  0.8915242944633349
  0.6267861838909365  0.3765466856138877  0.8677100401588200
  0.8778534782948932  0.3697322625250518  0.8654998952474067
  0.1286921856219587  0.6323979206846023  0.8797601629297883
  0.3762717599213243  0.6086419255649624  0.8750697322506715
  0.6361424719039626  0.6141663360996992  0.8657680293284724
  0.8929841944022365  0.6302120229787921  0.8604028610798939
  0.1292324135206442  0.8707619597914188  0.8757849640557759
  0.3766132523328751  0.8587529646993571  0.8864211087747750
  0.6286023584789902  0.8760865421019149  0.8774099446717203
  0.8670129126555903  0.8661325157491886  0.8840676860883413
