generated by phonopy
   1.0
    15.9923497217343744   -0.0000000000015236   -0.0000000000010772
     7.9961748610645493   13.8497811253384029    0.0000000000003944
     7.9961748610645493    4.6165937083140518   13.0576988688087816
Na Cl
  64   64
Direct
  0.9997998308865182  0.0048666228581746  0.9962162311288112
  0.2622154664575507  0.9981244516312611  0.9941367451292591
  0.5277433528161756  0.9958949229015638  0.9834759611605828
  0.7491961153796187  0.9971188651675631  0.9999721004755487
  0.0162039482814809  0.2607961221520616  0.9872262618430336
  0.2471813781541010  0.2562770063176489  0.0017796461368229
  0.4929968561546463  0.2455883765342423  0.0137719472631897
  0.7503429146573948  0.2652707677984902  0.9894378994155218
  0.0005307745946662  0.5159256277897120  0.9906799429249666
  0.2509503507376852  0.5020891327174751  0.9992578702816525
  0.5206721685569399  0.5054332679037775  0.9775996397995353
  0.7518536194761600  0.5025084442906733  0.9912185721847772
  0.0072708891869805  0.7467628013521712  0.9948616015465422
  0.2424747668618149  0.7486986564332089  0.0034578632147149
  0.4916670986797335  0.7576245779112445  0.9904978656619898
  0.7672425969095615  0.7312157931011686  0.0109011412019490
  0.9886218918310616  0.0051592347118838  0.2427381319717956
  0.2659310722056063  0.0009774071939707  0.2371477088421504
  0.5154869721788387  0.9951922176377098  0.2417787075182161
  0.7632660674355544  0.0008823045458554  0.2347091856449542
  0.9997130578869439  0.2333259126303898  0.2644460834451176
  0.2474029704963946  0.2474149300011041  0.2613071701204964
  0.5080146382235089  0.2517843326686675  0.2451518693492404
  0.7491793647112557  0.2534954966487735  0.2494066893326796
  0.0002852069418007  0.4923901475701603  0.2450231056490629
  0.2355838185244850  0.5121134272079554  0.2436834817041394
  0.5035534931173752  0.4983106243436991  0.2528147953237863
  0.7589565128339808  0.5104742614930264  0.2445893797651914
  0.0047819099541029  0.7657065309380228  0.2236745482768645
  0.2537889124717141  0.7662496614921575  0.2462755070623718
  0.4935263311379177  0.7546350901167542  0.2554397836141078
  0.7463123602281865  0.7468269989284102  0.2490404144976454
  0.9957070021390838  0.9970387836699572  0.4979717394924477
  0.2433485496899351  0.9965904325993874  0.5096953928649156
  0.5122885439227398  0.9832594662303028  0.5017223224738572
  0.7438149964960216  0.0164044737459194  0.4867528942816966
  0.0096351786259462  0.2488015112651425  0.4716159381352827
  0.2533822502256766  0.2446422205293467  0.4945203590257502
  0.4877166016736284  0.2508314598171619  0.5259442023478577
  0.7430891792500253  0.2589638421049300  0.5053639928350392
  0.0069821046984346  0.5024858306455042  0.5050326876939494
  0.2304036272364802  0.5064541351622746  0.5098904510298305
  0.5141847599524275  0.5052014841825738  0.4861670978448345
  0.7397679821927814  0.5092298371102222  0.5083852723703940
  0.0002399958170668  0.7258419346226368  0.4931258210156146
  0.2345732942276475  0.7544883140772274  0.5044600290710249
  0.4775206925825420  0.7560621833795200  0.5089770617045354
  0.7483095489132970  0.7542553184258338  0.4951655218345459
  0.9892736621965001  0.0073240554069244  0.7559092432107221
  0.2551505816511256  0.9832683241250363  0.7683837712926763
  0.5274702794799885  0.9653518201137518  0.7559063400534046
  0.7328881774648099  0.0106187335629920  0.7428862580423647
  0.0038404030122076  0.2375765898047564  0.7595669504064007
  0.2393577946579454  0.2595126087098454  0.7715000870067260
  0.5165780053563377  0.2422345099081063  0.7499876313446194
  0.7548983860201777  0.2536478169134673  0.7427381353953315
  0.9956945978490981  0.5147541006047522  0.7402980556310798
  0.2461724451271622  0.5007730003263006  0.7416518558620987
  0.5073822803325624  0.4885905613268298  0.7424780916970634
  0.7501228542818362  0.4991071069189498  0.7436458627650238
  0.9946246975147494  0.7655359986889517  0.7395653918431920
  0.2635175322718904  0.7414163573949023  0.7634818620490040
  0.5057107191318680  0.7506261288224692  0.7471658825323528
  0.7530221929579963  0.7321199025906401  0.7654083134852863
  0.1191512150122857  0.1210317835681921  0.1210288744902216
  0.3718712626193351  0.1221481032635459  0.1247811606622509
  0.6242725041297332  0.1324061098685479  0.1131753945810850
  0.8840856237594410  0.1221826186835457  0.1287513434340266
  0.1189028726209361  0.3738145773098387  0.1342987815193999
  0.3994561438203033  0.3539891664351225  0.1125578905081440
  0.6174430917396898  0.3785190711611472  0.1225300787113083
  0.8726909843966520  0.3778293299433835  0.1254784175244694
  0.1314439850247041  0.6285079163917329  0.1183910040098733
  0.3576476970820794  0.6220918562540683  0.1282976278170486
  0.6096671122850906  0.6211119675170851  0.1345466431404626
  0.8758850624969640  0.6245175861224341  0.1311223884794023
  0.1141991211344556  0.8780218957048983  0.1282150453159675
  0.3785324227956876  0.8769432458525066  0.1333027303811399
  0.6183689868562084  0.8815883478189711  0.1167223413037498
  0.8892393103759429  0.8629515143578244  0.1087102210787684
  0.1409125202403395  0.1271569521952347  0.3611330336757874
  0.3861883302360281  0.1081549399004121  0.3890943483614354
  0.6094106289324581  0.1250904534178721  0.3712717825420447
  0.8968598869485387  0.1124776827249843  0.3789568602117844
  0.1183403157914411  0.3782534747115284  0.3739148015904573
  0.3810004063228257  0.3630163627253578  0.3772009267592698
  0.6130106479024211  0.3909311623865567  0.3742126555891607
  0.8831321336758825  0.3812131364917827  0.3542037620317992
  0.1357604312830372  0.6162591103081437  0.3701874484323388
  0.3735516820819833  0.5953349518362880  0.3834314415871207
  0.6144408988059648  0.6255229339444811  0.3740872077961934
  0.8834023965077707  0.6275279323129862  0.3666388532777739
  0.1274876205238467  0.8816958925658903  0.3667361843658151
  0.3666308128465083  0.8745733932454430  0.3756985479805265
  0.6341984517268142  0.8783318985606483  0.3724680973295492
  0.8717774001320830  0.8794002146322342  0.3734963365399075
  0.1292866264129300  0.1234353393203467  0.6251166389225992
  0.3861223572371255  0.1268737482174878  0.6188947240581849
  0.6197593598998222  0.1297465823895603  0.6185876974831386
  0.8910464159087477  0.1060142867640463  0.6363768379079748
  0.1540026125750347  0.3619461537926645  0.6155575390108597
  0.3683551898508222  0.3686547682298027  0.6321060150400915
  0.6127408376600050  0.3969769652216715  0.6150119987759112
  0.8782901978502246  0.3812594329936005  0.6399389697182574
  0.1238823089127597  0.6441544768712417  0.6124977036290880
  0.3743515163952128  0.6107786742635928  0.6447997109586345
  0.6363817206089062  0.6168369564324399  0.6169566263278585
  0.8709989719691166  0.6377049689126680  0.6167883424856936
  0.1146216209691636  0.8906355477808364  0.6315630829679053
  0.3923500320897006  0.8693328247059154  0.6058270857283332
  0.6191295673014781  0.8808622498093396  0.6198137958802881
  0.8875519548270443  0.8725661260699333  0.6047434639991111
  0.1185256211225190  0.1248195435998259  0.8825561191133822
  0.3710895505911388  0.1480213848402220  0.8561672389945374
  0.6285323751774193  0.1121968433115479  0.8766700916038673
  0.8720169578907129  0.1306688398282504  0.8678184366812053
  0.1200088186303507  0.3803464787706052  0.8889192106030458
  0.3899177470840642  0.3789625504036402  0.8558383605688750
  0.6329541562740832  0.3586269021058240  0.8758615239889468
  0.8757374729049483  0.3707254033729718  0.8827412050926637
  0.1153495271102148  0.6268284368980803  0.8798660397307240
  0.3837530928209316  0.6239571827552168  0.8603860526662954
  0.6279817731454669  0.6448086799881215  0.8579261997075017
  0.8672626696454545  0.6272574432236955  0.8759548428371091
  0.1314753020245319  0.8902274281670786  0.8639115058682926
  0.3626575941480288  0.8998337195273884  0.8660732003477730
  0.6194029529076518  0.8818224698227366  0.8631511799210170
  0.8591142822323266  0.8858305308816334  0.8806574816131851
