generated by phonopy
   1.0
    15.9923497217343744   -0.0000000000015236   -0.0000000000010772
     7.9961748610645493   13.8497811253384029    0.0000000000003944
     7.9961748610645493    4.6165937083140518   13.0576988688087816
Na Cl
  64   64
Direct
  0.0092313610093120  0.9975264681591981  0.9879666457013938
  0.2388698969078208  0.0050431986323193  0.9962084211905551
  0.5153956724569201  0.9914787583434771  0.0069555558307086
  0.7509641163168450  0.9897889236520768  0.0124385284746908
  0.0102327209454915  0.2370634693268645  0.9938161836102618
  0.2562413307606711  0.2535893757916139  0.9932673202644202
  0.5065785422683987  0.2456442745325202  0.9889383189911053
  0.7283244728184347  0.2532160459519496  0.0071715877096223
  0.9949231953797447  0.5060858934127671  0.9897181750619660
  0.2570914069003069  0.4818535642173528  0.9971872160027795
  0.5199977772628916  0.5049574017519117  0.9830812938121172
  0.7458462579379842  0.4993202749033503  0.0056544289615213
  0.0158515227793779  0.7504465484916845  0.0029386790607185
  0.2485874055906691  0.7489445672708810  0.0119988439288864
  0.5189991203291919  0.7483021358803961  0.0064251710127506
  0.7430273284269173  0.7589197218155831  0.0008659453412047
  0.0098904240861207  0.0030372226266811  0.2470614530306593
  0.2512387641307395  0.0119877114387733  0.2544591044313956
  0.5049148178127203  0.9932336358004102  0.2374827085476392
  0.7649504873084745  0.9968298088954682  0.2468168354939033
  0.9953587028159314  0.2539116481235767  0.2501736006626852
  0.2570181856084705  0.2475121460959915  0.2483209343134751
  0.4959209288010404  0.2436467141224141  0.2549928143573122
  0.7508546344572773  0.2441544412929116  0.2645070429018064
  0.0139287973227153  0.4936591227254501  0.2432891344561607
  0.2649136852280839  0.4954201179353925  0.2501021440159857
  0.5082693074443704  0.4982756537639555  0.2437269149461498
  0.7675358958137167  0.5001215868860037  0.2325539393928494
  0.0027019207459241  0.7548255887549500  0.2507859591631595
  0.2429468304821223  0.7585104617379259  0.2526249985609255
  0.5013990590957383  0.7482717502003670  0.2523411053796117
  0.7424859422765643  0.7620863113875669  0.2519521998398401
  0.9944024272156786  0.9730227140980701  0.5199971804330719
  0.2556147079892419  0.9892492354381084  0.5004055386755312
  0.5001983047796740  0.0218527721777859  0.5077445350506287
  0.7437378608013600  0.0158517363866513  0.4809701084500235
  0.0053487154254269  0.2508964462436544  0.5169046320372361
  0.2552317283666548  0.2611261653324142  0.4927200231856484
  0.5050747269474329  0.2535472247786766  0.4937388008876138
  0.7491413007966111  0.2552932194124765  0.5057937594011724
  0.0023091410143420  0.4923736068532573  0.5008714632230613
  0.2564297854546566  0.5002641693417347  0.4988437009111142
  0.5107439402561647  0.5001284634559522  0.4994886058493013
  0.7455798433443405  0.4880308509204661  0.5095959585854652
  0.9979045651210459  0.7363055176039849  0.5138066482096691
  0.2554796678585672  0.7374887870838829  0.5004607605735629
  0.4830355867223841  0.7338115904458095  0.5148637306988439
  0.7396220024418463  0.7797033724951664  0.4943688796030592
  0.0098006156880100  0.0055702000997936  0.7522997064303795
  0.2402915192214185  0.0038455447325126  0.7588068983418903
  0.4733520998056900  0.0083405023636657  0.7800041993917348
  0.7490515484853618  0.9944450042191111  0.7636315264277762
  0.0156055294232716  0.2174947344002513  0.7751839654124850
  0.2442598599519243  0.2296179381428847  0.7560776018000579
  0.5298105500466018  0.2380944067058342  0.7429953158775178
  0.7605772844066150  0.2512202748087131  0.7388864980893821
  0.9802072074154378  0.4938608006369551  0.7747670838893207
  0.2488360400378630  0.4948283336106267  0.7588458170829696
  0.4894254044635756  0.5038039254034421  0.7476017706636034
  0.7556663433635712  0.4981129544766562  0.7554994232982184
  0.9996649160113231  0.7485257395342058  0.7634850356655561
  0.2589530542749476  0.7566349143775877  0.7537671148019417
  0.5042332113131585  0.7562578416183586  0.7378973659145021
  0.7380042856982016  0.7672556581054304  0.7390058356576865
  0.1328708922439130  0.1480986559845616  0.1109680489797777
  0.3746176732996052  0.1292826775106745  0.1245935881805048
  0.6177649057506410  0.1298298277801169  0.1143986474504109
  0.8764125294681828  0.1225532180936869  0.1243967000293716
  0.1439631569632221  0.3899067257917492  0.1108565170703091
  0.3634369029959332  0.3839514105419620  0.1412152440087643
  0.6276410909279876  0.3690647729453555  0.1450881734174322
  0.8683341142089853  0.3893437345398248  0.1230324450369882
  0.1071386891196285  0.6284292561950570  0.1372403092461791
  0.3828444233484602  0.6241468837711276  0.1266481471751666
  0.6367431277025249  0.6074171137430477  0.1293400019457983
  0.8803244567904951  0.6114242888114485  0.1439926971291469
  0.1178055382340703  0.8814709394885236  0.1174886852542230
  0.3828037954970170  0.8642094759433327  0.1438264365959194
  0.6303609787179910  0.8684497206887241  0.1197430850559449
  0.8843389125249027  0.8590315694030869  0.1362567871032971
  0.1258597789857546  0.1243892886309985  0.3940741932285882
  0.3649253331817827  0.1310523024620732  0.3663042244551954
  0.6185702897567869  0.1368032462643282  0.3652877918744160
  0.8884015150670587  0.1311617015127382  0.3564639441834218
  0.1243941847538413  0.3798629122934533  0.3723346856105929
  0.3768881017855163  0.3672909657064195  0.3781280475964606
  0.6241779404002942  0.3735847441773585  0.3711764465187794
  0.8702780658999183  0.3712151094752171  0.3906247710236680
  0.1347976682411965  0.6291276386161551  0.3764457508065304
  0.3838554846654128  0.6157154850732248  0.3675077686065495
  0.6189364488944455  0.6371770734700672  0.3734592526707150
  0.8780048369206659  0.6357751513106614  0.3672319133138328
  0.1195160270006373  0.8762104217891377  0.3987255944589685
  0.3591986959626132  0.8819452527757264  0.3728690170506812
  0.6265246533417695  0.8645924523184736  0.3723526086699910
  0.8724794896691542  0.8747816749484757  0.3707101716652053
  0.1153911668611038  0.1317682020025826  0.6371004898116733
  0.3929322651003707  0.1290915350155651  0.6125307133494874
  0.6266951833468029  0.1039487750286310  0.6331008747883202
  0.8780192179480618  0.1348727272121195  0.6061390473284700
  0.1414775552073307  0.3707123780079797  0.6108790085513063
  0.3854069172116857  0.3615566780512176  0.6215058447511121
  0.6181430065701402  0.3891688357341883  0.6146269549831449
  0.8752053306280350  0.3657089372035280  0.6363303851084678
  0.1393763589989564  0.6162160424858658  0.6235473704566217
  0.3774667146707026  0.6157139476596418  0.6326659586555933
  0.6237053969992289  0.6457397876777329  0.6240373716173182
  0.8804379933984725  0.6295972917886137  0.6142521315822717
  0.1138586465027903  0.8851181163016720  0.6234353270140244
  0.3656503703734652  0.8721127270812000  0.6320444182353814
  0.6179901293608568  0.8928140810470893  0.6243838396643767
  0.8790247591042162  0.8630751817244120  0.6253787261589703
  0.1213742437669071  0.1063840234057037  0.8926173777009511
  0.3859120443387796  0.1185169346924076  0.8679134374833795
  0.6249417613860602  0.1205993792414655  0.8842748521538810
  0.8818486605437879  0.1307158604394146  0.8636424400152339
  0.1297045799424311  0.3874304278608909  0.8569553469249108
  0.3651609558124794  0.3946908227269519  0.8821161618259892
  0.6226807752125481  0.3640346263424937  0.8785132833924582
  0.8637848687625415  0.3889365629244205  0.8823869947934796
  0.1192846889127758  0.6239393251128729  0.8795038306282956
  0.3823606423649032  0.6261626484301238  0.8748110443924542
  0.6151530425313524  0.6271199097100868  0.8911761791968775
  0.8683556441199327  0.6290339192215411  0.8716134016516407
  0.1373030810716906  0.8625956905586376  0.8796477979602392
  0.3803994361400400  0.8718389299440952  0.8805477812947166
  0.6300680733133230  0.8596933082946001  0.8901688406651161
  0.8719768071111738  0.8515538570493512  0.9011936867243124
