generated by phonopy
   1.0
    15.9923497217343744   -0.0000000000015236   -0.0000000000010772
     7.9961748610645493   13.8497811253384029    0.0000000000003944
     7.9961748610645493    4.6165937083140518   13.0576988688087816
Na Cl
  64   64
Direct
  0.0093178767310130  0.9886715491455781  0.9942456580347770
  0.2488741126208038  0.9994275403225766  0.0235840107629768
  0.5041227502237583  0.9856789634952653  0.0156238957399954
  0.7496956306218213  0.0126991928654658  0.0040080908390850
  0.9837182677456585  0.2593637408827041  0.9897156085522100
  0.2408212562798494  0.2449946064552022  0.0158355728829284
  0.4889318756440759  0.2637775959305049  0.9928917459682932
  0.7523445346729918  0.2582801639708102  0.9985500152797286
  0.0178993568280231  0.4859956034296855  0.0151364528868347
  0.2464696963880819  0.5009119689918596  0.0030946224872004
  0.5226784019509959  0.4945346817742285  0.9863143018434259
  0.7441874139644730  0.5066031832222723  0.0007746963763111
  0.0185246617390971  0.7468843794016551  0.9892305233731972
  0.2497433387441265  0.7505863993758443  0.0079306246961306
  0.4983753280056666  0.7542893849275988  0.9892576274964464
  0.7378392144753477  0.7588133586879896  0.0027469765302747
  0.9782889618240191  0.9878260567918105  0.2664925788390063
  0.2553122540311294  0.0052291849068395  0.2397650843327495
  0.4844158604604063  0.0023583419070374  0.2430882853825035
  0.7574977326052420  0.9839224368664591  0.2617946300913324
  0.9928082521054057  0.2681846430683817  0.2430763098585512
  0.2686693404844283  0.2097269816157078  0.2402927229053897
  0.4935300253854071  0.2512612722795072  0.2533230866466413
  0.7626160049830775  0.2339705379167939  0.2630289170126029
  0.9870850509454006  0.5143442429325243  0.2420866795593905
  0.2565154203916459  0.4989781797358755  0.2584255799253345
  0.4974684017183320  0.4869148302939676  0.2554272449187182
  0.7447256920413348  0.4909365547593961  0.2616000044329497
  0.0026737640619890  0.7592917675264419  0.2541997246135405
  0.2590306800729843  0.7437160326221163  0.2510480372255283
  0.4841000240134811  0.7541532818624045  0.2460928729044363
  0.7514515815369414  0.7534969174113166  0.2559909983576150
  0.0027119956974025  0.9839924646810323  0.5165193953853549
  0.2343231058425921  0.9769438250593120  0.5175932006997631
  0.4919147225964372  0.9937143521438377  0.5011474416203736
  0.7473298655181909  0.0203854792709195  0.4962047833997720
  0.9923558580413981  0.2584706540066883  0.4832796807938188
  0.2595221788251071  0.2446748306350752  0.4915953276003326
  0.4962492339320033  0.2530573635817136  0.4822757806319504
  0.7500785825537483  0.2341372225664947  0.5049580261107024
  0.9789823784502274  0.4892348813119222  0.5156268662268284
  0.2711004212545205  0.4915078575357967  0.4960315074736086
  0.5031744275293325  0.5127759295518722  0.5051388925836158
  0.7661643210547365  0.4859109210457302  0.4870989611333001
  0.9957650492734871  0.7645235588326921  0.4868566091205477
  0.2662578155726484  0.7596861964657444  0.4798847920711879
  0.5131377303582420  0.7388351961683262  0.4923091545303856
  0.7367411169932937  0.7549562317956636  0.4910572004589250
  0.0080597343005817  0.0023561917305044  0.7409461512678325
  0.2515886287766630  0.0204532881680303  0.7315538016954791
  0.4921523006930624  0.0290389061789804  0.7431905469309259
  0.7399924896917168  0.0070266976292739  0.7434604726617536
  0.0099690455563162  0.2591656292813023  0.7313372870981878
  0.2585468760470503  0.2424756942128736  0.7521281128861639
  0.5018314445649359  0.2186958155031548  0.7639706035629485
  0.7553344264469080  0.2663716697944395  0.7364737187310307
  0.9821170638633917  0.5077841286838758  0.7574127728676703
  0.2547408753106805  0.4875146263025744  0.7526286714429397
  0.4875166410552781  0.4993592540200739  0.7557317397899416
  0.7287509269227224  0.5210782631079336  0.7639878547536818
  0.0205696749985421  0.7438143087063768  0.7597739230422376
  0.2614819743328278  0.7341623343955506  0.7522181917867926
  0.5033564077178280  0.7407003168464636  0.7395500167494053
  0.7494900194841536  0.7352487871902295  0.7623067783111839
  0.1242399551261620  0.1171904407326367  0.1159350224980985
  0.3650816800599243  0.1353796967501212  0.1269548309688101
  0.6127350776523091  0.1273022172825982  0.1264283757979581
  0.8605214010045233  0.1208530007307764  0.1447789323861033
  0.1486270857162365  0.3752488604750450  0.1055126797245066
  0.3679554395123410  0.3750538864203649  0.1215835424389384
  0.6281403268846601  0.3785015500325118  0.1285169659744855
  0.8822921741547929  0.3682336958932413  0.1249489113914321
  0.1288521017826062  0.6195170419444714  0.1163208571273532
  0.3817342747613378  0.6219795000276794  0.1056924403957507
  0.6240518450849973  0.6122516145398750  0.1243944748745435
  0.8741779723841242  0.6386052742083209  0.1218616595468317
  0.1361825019668737  0.8657035990025433  0.1152388467417401
  0.3841091879671197  0.8676160225677536  0.1150396860412213
  0.6039982806166670  0.8768805872820917  0.1330029268934627
  0.8642949785983350  0.8726318193105417  0.1307621054004671
  0.1350881758827888  0.1228388655715668  0.3620469268312540
  0.3643124382802105  0.1250535127622625  0.3746931320487231
  0.6140810365538516  0.1123391357855739  0.3821860407314321
  0.8731377303685706  0.1311486285414883  0.3889731152961490
  0.1178120706464760  0.3717950565802920  0.3706179790172697
  0.3778045565897781  0.3855434659528584  0.3505460166066524
  0.6167936075675950  0.3763928056383568  0.3829345206784792
  0.8705888752415507  0.3739859461505174  0.3750038410698350
  0.1404368808079831  0.6113334044714328  0.3784267153265409
  0.3686993279636561  0.6187141584118585  0.3894466426224311
  0.6262210766521854  0.6202696456704733  0.3765001228121027
  0.8727299014079148  0.6240473387517907  0.3731344575232712
  0.1372699034151562  0.8576430079426491  0.3802797847256248
  0.3713160783674753  0.8623282309412622  0.3898864469919456
  0.6199822761464568  0.8826306381310789  0.3868687016854521
  0.8765843144949362  0.8757859493842953  0.3898436528097254
  0.1399244201760386  0.1205674784078254  0.6391056311902250
  0.3867407671690459  0.1159886719288174  0.6227742784342012
  0.6192555243935869  0.1339374703731948  0.6261085929904302
  0.8605055428425558  0.1255458796465444  0.6302446889314888
  0.1138198230673740  0.3721951698163289  0.6220069883043569
  0.3629309757396509  0.3821183767276973  0.6098724277618603
  0.6111958156407491  0.3802743121339013  0.6241440054473376
  0.8656821495345016  0.3779265894375542  0.6256375203384403
  0.1173611371414892  0.6227051140155062  0.6345983493537781
  0.3736629117084864  0.6134617849583998  0.6226837648873279
  0.6214121125184343  0.6346948923520304  0.6273823247359256
  0.8769779235699222  0.6199529060927992  0.6289423632546136
  0.1257657696562118  0.8649684745014887  0.6289804366679459
  0.3781476108747158  0.8765717722343316  0.6151083689919168
  0.6413427644684295  0.8728214850734120  0.6131718204109876
  0.8907804386659050  0.8567051230952241  0.6290293410035053
  0.1259671372704879  0.1248136367445777  0.8715420289439453
  0.3740955555433852  0.1192305964803571  0.8706247998393271
  0.6318046578884904  0.1181702476903636  0.8682426211742104
  0.8730995891654854  0.1332648045306087  0.8604079290522454
  0.1149732587411075  0.3759059143082489  0.8847067578585345
  0.3849821651167480  0.3808178232318829  0.8544876757543217
  0.6290719231723993  0.3713061483566257  0.8778448531014942
  0.8861115772346602  0.3686830055261323  0.8698681810094118
  0.1292391811371925  0.6144008422212177  0.8836148454697457
  0.3775647123226863  0.6251631053193605  0.8900819490751790
  0.6250776279139829  0.6229535384758551  0.8878389142670779
  0.8772474699663155  0.6194424054263041  0.8817036629976788
  0.1296030628048406  0.8674740146987714  0.8929899164630843
  0.3578466774219968  0.8777215246788026  0.8776223541657581
  0.6323532325105359  0.8614741971227327  0.8610847310264315
  0.8828613250970332  0.8676884424042297  0.8885211368376780
