generated by phonopy
   1.0
    15.9923497217343744   -0.0000000000015236   -0.0000000000010772
     7.9961748610645493   13.8497811253384029    0.0000000000003944
     7.9961748610645493    4.6165937083140518   13.0576988688087816
Na Cl
  64   64
Direct
  0.0046611945143377  0.9961255236775909  0.0086860709654547
  0.2510803137935824  0.9940268117621315  0.9922171036738395
  0.5261642433397815  0.9864211628684806  0.9830412772576186
  0.7607716524024529  0.9978036043292284  0.9869845808430610
  0.0152915095300582  0.2469298979083753  0.9991170822008327
  0.2470148730610780  0.2458855425658552  0.0052929550631433
  0.5005393405682972  0.2462379320902221  0.0160656013123778
  0.7551207964360844  0.2440482413307916  0.0058284004357969
  0.9937687705922098  0.4935404705536213  0.9990263877058916
  0.2474193853980487  0.5056970252293626  0.0012314804787997
  0.4931788339191502  0.5320679339150282  0.0042626326319919
  0.7464636228669843  0.4934209717024345  0.0140573045761258
  0.0074371745027386  0.7462751684457009  0.9902186615818699
  0.2397315699090514  0.7550905327651024  0.0139128656522950
  0.5096025612165959  0.7438599342088015  0.0059768933951562
  0.7479274417301308  0.7501905202293012  0.9990915127482782
  0.9892877987282583  0.9996598599168328  0.2505965102456766
  0.2519237242389804  0.0154613652764638  0.2624042897053793
  0.4865186439188993  0.9919491283688940  0.2617233806308791
  0.7665532050116464  0.9887501466139157  0.2345250405670938
  0.9820177365378617  0.2493143268617591  0.2536007920745006
  0.2469915459941890  0.2575960055469512  0.2484982933752131
  0.5205813197732613  0.2334166140272899  0.2507572576757355
  0.7576855180705255  0.2336148008165009  0.2702454688547801
  0.9962128280290070  0.5108249209977804  0.2583992495208968
  0.2475010522950805  0.4916696460779203  0.2560055295501298
  0.5059670915127052  0.4923802272131479  0.2534726911135610
  0.7474970854707120  0.5033190001648136  0.2375443344523919
  0.0003533102611556  0.7515221740236950  0.2640265315649858
  0.2627999682283778  0.7488645268740367  0.2454002975652769
  0.4859060570329216  0.7433847822118098  0.2606231216647882
  0.7439762742991967  0.7542882157313950  0.2507768944994809
  0.0006669739396719  0.9956903726569006  0.5076676955288021
  0.2226178099600399  0.9929627209353642  0.5080303921996114
  0.5025327601494320  0.9788044195343704  0.5226911643569159
  0.7621957087999386  0.9939295703835758  0.4949426320452822
  0.0030089788530219  0.2375359220272195  0.4915824140279055
  0.2500941592531163  0.2448154942402304  0.5026469713764347
  0.4983451141820940  0.2353520715804299  0.5164197511291164
  0.7314901319663846  0.2526099471019463  0.5180599722511442
  0.0047119651819855  0.4820427595477866  0.5043520701904785
  0.2696463729133831  0.4843976545668621  0.5002583578214623
  0.5027620658657017  0.5028732726373276  0.4953030925774244
  0.7549914358344840  0.5071923621486805  0.4963622999403949
  0.9935925263313150  0.7656804170635654  0.4953500215335296
  0.2476135608498364  0.7512091955066981  0.4877177718552725
  0.5024585265378021  0.7391897809617420  0.5110217591721863
  0.7575725413632003  0.7451447589173892  0.4848126026362966
  0.9912210186870080  0.0094143772656737  0.7487529926507110
  0.2571020305021042  0.9911936049664929  0.7335160929740782
  0.4902876296541564  0.0048740882009097  0.7430617489954037
  0.7528179425174546  0.9787420169739042  0.7499296455308356
  0.9965603887852139  0.2405764315418809  0.7618004455354005
  0.2366692307106980  0.2557407513024825  0.7488634530651815
  0.4975802335044461  0.2472045542663240  0.7481027507430751
  0.7633335362750286  0.2518666750178642  0.7430740942610925
  0.0054683151222816  0.4959802082663400  0.7570183822549197
  0.2607150926613908  0.5028184504391395  0.7565707436971139
  0.4951779726072810  0.4994541996225692  0.7427825226623079
  0.7640718080629784  0.5017792921069149  0.7345730077100602
  0.9895997372219935  0.7698442786045925  0.7386990538653641
  0.2461285714196657  0.7565079186626384  0.7592120651003158
  0.5090172452506841  0.7511161567853947  0.7477633400985777
  0.7522715759087504  0.7529758203362525  0.7516097257024850
  0.1250731202725062  0.1274495432233026  0.1183216300757810
  0.3772444263161832  0.1255109677364750  0.1228706331016509
  0.6155416039222592  0.1233791194677341  0.1207123741391164
  0.8986794335463106  0.1328282999497551  0.1100233371660448
  0.1116417111487195  0.3941755030061601  0.1179634296470464
  0.3677404100110807  0.3763421340258594  0.1103281972142887
  0.6141340217721235  0.3716044404309299  0.1369146717665820
  0.8790612123834449  0.3681097095503573  0.1379685201567617
  0.1370008667134961  0.6233345659204783  0.1051768264177282
  0.3778252288801069  0.6281798756153824  0.1087051839182252
  0.6232736999139831  0.6148527103181975  0.1278770169235562
  0.8762684914061960  0.6278112468570120  0.1266674366528018
  0.1263021194540843  0.8783244441889599  0.1267543840178224
  0.3795651421737918  0.8697892541033639  0.1350347062239738
  0.6296511261105425  0.8651934640170945  0.1304352354484228
  0.8695768508216274  0.8771619914972996  0.1182118960925531
  0.1209104566839001  0.1244500926725402  0.3718755359883586
  0.3872343135780317  0.1304291249438052  0.3653295783962940
  0.6272876450740013  0.1200544517919978  0.3709439873797809
  0.8753126379395881  0.1176252849107557  0.3698802175863966
  0.1211880945769915  0.3708842862679902  0.3862462608756477
  0.3736026102177238  0.3791310712527898  0.3737756286333974
  0.6330463679333291  0.3743540549068007  0.3756965479944218
  0.8894021924292960  0.3729101040984410  0.3683984427799222
  0.1182343299149447  0.6326079410789699  0.3702579435740029
  0.3674338791283401  0.6446750107320494  0.3610017639482970
  0.6287330295956702  0.6256907407970401  0.3738393802678296
  0.8754634321313336  0.6443940870960501  0.3697931302843994
  0.1268919622115726  0.8757502326691660  0.3551173367985501
  0.3685949425298120  0.8631884395850706  0.3885884891746007
  0.6397881010977502  0.8811522850274999  0.3609268878235521
  0.8741387981902838  0.8574056330299877  0.3963372020785936
  0.1041989656397392  0.1291111590930055  0.6295832757452299
  0.3729892466667046  0.1363803813705849  0.6161390366294692
  0.6176774631644365  0.1238220534277529  0.6250523588959168
  0.8830299744320069  0.1118929797987363  0.6280534678927495
  0.1436123166847940  0.3636540491328001  0.6243825512028767
  0.3750492565897159  0.3842102036949497  0.6210760547908251
  0.6281749447224682  0.3691189500383322  0.6447105552711643
  0.8645693967882239  0.3967330921490110  0.6258909010538604
  0.1356466366004838  0.6159112405564212  0.6167777489285341
  0.3725285387255560  0.6195761434986958  0.6307273850539598
  0.6376126146959483  0.6209291948017014  0.6213164399829614
  0.8805241251232513  0.6152481023366271  0.6304764045928970
  0.1043669434259414  0.8798648512290764  0.6217985649457429
  0.3676610633233299  0.8906667876154885  0.6140788105795654
  0.6219484283922007  0.8860536395514431  0.6249198592101392
  0.8726453752515790  0.8913326275194853  0.6274614269288141
  0.1121993010086169  0.1261413880661605  0.8808258202319018
  0.3641440907728237  0.1344765748830186  0.8805932852045532
  0.6158563868312745  0.1261461966077176  0.8759782337804926
  0.8773854524510012  0.1238800931168611  0.8757435892852561
  0.1335224201094911  0.3521913888172270  0.8837242947290146
  0.3815587715118386  0.3760112743742977  0.8744532735103253
  0.6373081020593614  0.3730075582763655  0.8786591345243022
  0.8690597889571255  0.3818312129225345  0.8789409065406498
  0.1358949890058535  0.6430007766492745  0.8678706427305694
  0.3793296676134600  0.6235342646889450  0.8813604382503666
  0.6086714847641137  0.6157250011962647  0.8859538933050743
  0.8560865680971698  0.6185628131165433  0.8826446328881183
  0.1136391018792982  0.8700994667895421  0.8828839088550507
  0.3831485420192218  0.8553625089120256  0.8709270905248740
  0.6257609824483561  0.8680945598105900  0.8850680754155016
  0.8749271058809152  0.8660001313837964  0.8783850015547729
