generated by phonopy
   1.0
    15.9923497217343744   -0.0000000000015236   -0.0000000000010772
     7.9961748610645493   13.8497811253384029    0.0000000000003944
     7.9961748610645493    4.6165937083140518   13.0576988688087816
Na Cl
  64   64
Direct
  0.9810834115009490  0.0173298766161521  0.9995416453153603
  0.2607540749742139  0.0057652276014689  0.9814142744025913
  0.5046197383156785  0.0028504491063924  0.9992131927274729
  0.7437142259297147  0.9926937646692187  0.9988374033192577
  0.0156167948037085  0.2450124203163888  0.0002089603364466
  0.2296167525773075  0.2608853170072853  0.0125272710556532
  0.4858340573969838  0.2483735552551299  0.9999037941938940
  0.7361930114375894  0.2507870929724116  0.0139335403776091
  0.9976928927782842  0.5124919675615018  0.0010486867698892
  0.2503534417097983  0.4955244265735990  0.9886265947560303
  0.5067974979674522  0.5012242414494414  0.9988272685157307
  0.7680874145455940  0.4926743184316994  0.0178256655446551
  0.9983455082789479  0.7418388522380680  0.9938784577042277
  0.2475472170226227  0.7565382823044499  0.0021789379672656
  0.4998262651739999  0.7482189433450754  0.0169656622469728
  0.7345947615394901  0.7588501107547896  0.9973961788533803
  0.9958713881654178  0.0026242308073907  0.2649117389242265
  0.2456501246700546  0.0005781070919802  0.2527200772485101
  0.5153750554900532  0.0111891438271577  0.2285011021009503
  0.7417887206553104  0.9967423126947466  0.2577558720853826
  0.9894482187058731  0.2565008850281859  0.2441985142518737
  0.2538682101713927  0.2445147537308242  0.2521584221510155
  0.5005478860916454  0.2472101544909558  0.2533024122066223
  0.7482584076862945  0.2438308057307842  0.2502935045050087
  0.9868291444858044  0.5172080023470028  0.2473444495312069
  0.2631149637954089  0.5053665361558013  0.2293174850033992
  0.4851413623856293  0.4881260532179258  0.2616291661004812
  0.7326378077121297  0.5054161760773732  0.2527205134638730
  0.0108391048291628  0.7488511587260351  0.2418472438275141
  0.2500024061753511  0.7642744119636481  0.2295001693731725
  0.4821041168071726  0.7674254350914629  0.2422738150947047
  0.7404119464515264  0.7479203713072539  0.2465399311731322
  0.9999272467619594  0.0147991017254266  0.5031431510898380
  0.2334385429993914  0.0045957690667011  0.5125620347669331
  0.4963987861134389  0.9924641720927012  0.5049211666256719
  0.7432153572025415  0.0082288537676209  0.5039916898261014
  0.9783116487495729  0.2443761933073835  0.5101175546195719
  0.2181159275746437  0.2628615363647060  0.5097480376972913
  0.4957719868385941  0.2502366998296718  0.5106297210982763
  0.7466199812635255  0.2419457097167900  0.5121576719685460
  0.0059993323412507  0.4909643418966995  0.4942905063377435
  0.2703624760934197  0.4886776725778815  0.4888398421601595
  0.4900310968710684  0.4948016319336649  0.5175259556335894
  0.7615055336864890  0.4792970782745198  0.5141254146553710
  0.0093684357233242  0.7490346162550999  0.5045508637169134
  0.2341103745656385  0.7511926108866454  0.5069514590009945
  0.4968159756681036  0.7489930563051250  0.4977507634590114
  0.7538674007311225  0.7539511037813676  0.4878072345196771
  0.9996121604626766  0.9812271200762225  0.7626323496024466
  0.2299575257532948  0.9887906330157334  0.7501111909468215
  0.4990670205950744  0.0008412758700377  0.7605109700955608
  0.7440521211469862  0.9919726371681280  0.7646917425922686
  0.9984421967082699  0.2460988646553801  0.7549477201304450
  0.2515483763530586  0.2531071634320135  0.7551369873866235
  0.5008528683029819  0.2437206657850425  0.7490208966417241
  0.7481483242712014  0.2518930264935589  0.7566480145842971
  0.0102488259284358  0.4796786903522715  0.7588797420282789
  0.2652858406191554  0.4968295207373613  0.7513664707324915
  0.4951352930275407  0.4932865827344806  0.7527858867125178
  0.7491674858720563  0.4984322815024715  0.7514366628913460
  0.0007216341923015  0.7228283005126206  0.7673020450604324
  0.2382697749215840  0.7779014932581036  0.7506268277127459
  0.5070825048346623  0.7382866622076623  0.7554822337311046
  0.7383979215631260  0.7414147937184639  0.7587985352175065
  0.1204983063909400  0.1238244345751466  0.1296633034336342
  0.3734221742850970  0.1320798781068289  0.1198821313422250
  0.6218333256152019  0.1266962993440837  0.1265271247999049
  0.8791464567142259  0.1252591505696599  0.1329257552887833
  0.1275744216383373  0.3870232642780868  0.1266322621173729
  0.3844196280257569  0.3889181547720442  0.1097465329836608
  0.6212142669011427  0.3754092972727446  0.1203302329330826
  0.8689435488738261  0.3877100574255589  0.1214938135947205
  0.1278952290768841  0.6237476235141058  0.1291070024589241
  0.3742227954129093  0.6185963085254860  0.1193130063775761
  0.6194074192673962  0.6399518076253031  0.1115570623979658
  0.8721970935595874  0.6296747970416021  0.1146715693445829
  0.1186200380871328  0.8801367159228553  0.1273095473805216
  0.3730919623765185  0.8812748910797754  0.1239276172355308
  0.6415501711065749  0.8854121912828913  0.1083368355624160
  0.8774456172073187  0.8619301109078048  0.1315452355115650
  0.1250728663513477  0.1223953761569096  0.3712953164893218
  0.3776569882530343  0.1251436048234299  0.3824152663420231
  0.6157572037246470  0.1376491540620150  0.3843929355673529
  0.8697186731386412  0.1396814835157560  0.3794974505863152
  0.1136651108229421  0.3850428861341608  0.3846915779062171
  0.3692968218873066  0.3805455655297083  0.3682342540557012
  0.6124042001560043  0.3764069710532176  0.3979855792011638
  0.8738722931917400  0.3818176777796378  0.3732086904514594
  0.1177603758662412  0.6313351795504515  0.3911153931992737
  0.3676397542701003  0.6256687275296748  0.3706261281707425
  0.6259935717659013  0.6460334409036955  0.3497601077266567
  0.8855404256466135  0.6347837450002265  0.3827301773172004
  0.1324729424699223  0.8698349817168129  0.3759274828046499
  0.3887809668246907  0.8696170731480665  0.3778493687436030
  0.6329461667022114  0.8836596910246495  0.3784496435934896
  0.8836710114308287  0.8708569575235291  0.3749559023069901
  0.1227143133889946  0.1354528846563347  0.6161439505427664
  0.3727639253215129  0.1277235926645760  0.6222480855916845
  0.6208008213841997  0.1393976434518532  0.6184360497366662
  0.8800302550234590  0.1348963047960019  0.6247404607381541
  0.1215851978924938  0.3669379997514045  0.6465188525409253
  0.3681146594387196  0.3650905730157514  0.6295853081835924
  0.6296933781635407  0.3729575221963365  0.6426203230818662
  0.8777968894569124  0.3704703298410399  0.6279719598109359
  0.1372120219018821  0.6161985622280888  0.6217015131610669
  0.3726770354990070  0.6256512103141985  0.6116736828209968
  0.6161679189408412  0.6497535345169139  0.6176283232413963
  0.8823685262534022  0.6355044990685733  0.6124199505941184
  0.1218169596398663  0.8810592000093646  0.6267529593994957
  0.3679357850109719  0.8821386477614254  0.6197812740135679
  0.6391008283287518  0.8686585371938446  0.6283703157326143
  0.8644000285711981  0.8804658242978034  0.6329300809247209
  0.1232030150514289  0.1272114906751883  0.8683374490878858
  0.3653191528881549  0.1415901802840061  0.8774765823457995
  0.6374182163748559  0.1126503317563403  0.8748418784209666
  0.8900418797350134  0.1240159859602891  0.8598335968915052
  0.1378506756043485  0.3855414952919561  0.8642771131140848
  0.3644610877240527  0.3606756468267563  0.8804017441508269
  0.6269353858492118  0.3660975708487010  0.8807664036481305
  0.8791481462290427  0.3709847474000596  0.8686873930923964
  0.1291358854477311  0.6315133404941128  0.8669456025465174
  0.3753160532239758  0.6248774425050186  0.8754887690448687
  0.6163214425609949  0.6352652996329342  0.8780563667706511
  0.8711157570414754  0.6353719410885252  0.8654425270784882
  0.1209945106669063  0.8601241616525657  0.8871022666261200
  0.3942375079630770  0.8613049333659127  0.8833096887151706
  0.6190081504865474  0.8895255585015691  0.8787572958194770
  0.8829234109467310  0.8700537244752719  0.8818977243434445
