generated by phonopy
   1.0
    15.9923497217343744   -0.0000000000015236   -0.0000000000010772
     7.9961748610645493   13.8497811253384029    0.0000000000003944
     7.9961748610645493    4.6165937083140518   13.0576988688087816
Na Cl
  64   64
Direct
  0.0050884869593889  0.0020392184064797  0.0014267029733766
  0.2491266361178124  0.9993156373409603  0.0015705539051423
  0.5153796801648795  0.0075913989938449  0.9787518235145644
  0.7614158513876842  0.9892123659078201  0.0043752001606742
  0.0081396413887830  0.2351681106792563  0.0048370897517485
  0.2450216593655070  0.2670646306026131  0.9832201683510778
  0.5180417702469982  0.2375714086407695  0.0015434927187227
  0.7271512189777259  0.2626046904447438  0.0134774183011187
  0.0032747244470599  0.5025277020826858  0.9997954550781220
  0.2388206348318536  0.5036674176825054  0.0085582396078594
  0.4963574221608699  0.4998827526669443  0.0052913060606549
  0.7483311553914045  0.5097585938897252  0.9888758463321317
  0.9976092194001336  0.7601077163708836  0.0042364465865978
  0.2353030057815275  0.7334850485385123  0.0067643485716007
  0.4874067497047971  0.7555889898669548  0.0069074414757519
  0.7525467386194750  0.7424961387112674  0.0126403572498236
  0.9976311381850346  0.0148917452973216  0.2557667288839144
  0.2466694306357408  0.9839121654348932  0.2587969695210274
  0.4880870350655864  0.0078457822643640  0.2671427947848395
  0.7547841667357802  0.9957277917607004  0.2331962481149854
  0.9958907617472208  0.2450358177351813  0.2453248611220359
  0.2456552626792739  0.2518735550560532  0.2486383510306674
  0.5145733002563602  0.2461690317450121  0.2419937956427679
  0.7501970633931510  0.2431706950781154  0.2522829483712690
  0.9961493852219185  0.4914573158868781  0.2432638197003142
  0.2647294861354771  0.4958037563271261  0.2323908182408293
  0.4844132674063835  0.4940599023457565  0.2711306670845933
  0.7492198033309811  0.5107615601103466  0.2357340777796736
  0.0052083741603362  0.7446005884895188  0.2300350624155812
  0.2356752521649704  0.7561138814438323  0.2542709712210450
  0.5085748429856738  0.7540511382409548  0.2411645219914552
  0.7490282027934140  0.7591884358684745  0.2454964817692337
  0.9818040675741745  0.9994064553516729  0.5017420752698361
  0.2656695770264996  0.9887440226786788  0.4953941779972199
  0.4914437523510191  0.0009767652875885  0.5017053434541172
  0.7539194163114240  0.9946997013411641  0.5090237986574134
  0.9820622881384308  0.2441694436773114  0.5261185835051031
  0.2538551768942974  0.2441041105293809  0.5001375651439731
  0.5026165590140884  0.2333131949489467  0.5005808944702771
  0.7542754397525552  0.2421394986767797  0.4996546223487045
  0.9810452614380755  0.5059025785659186  0.4975472334724866
  0.2523351652787101  0.5149566068989404  0.4870449879695037
  0.4780431931893898  0.4972954743240844  0.5216929347094831
  0.7669074630845171  0.5010075995028030  0.4901910142577999
  0.0120751015537345  0.7512786164176118  0.4842731654223263
  0.2557447068611131  0.7484327888281883  0.5007844809094588
  0.5093887822369954  0.7649648877465849  0.4817811871562348
  0.7477945856479390  0.7453764673143879  0.5011412485889704
  0.0054582250180855  0.0045992082657337  0.7508792820767711
  0.2310047986448784  0.9975354707988769  0.7547244357788182
  0.5027871383283702  0.0223078427209702  0.7369486907889041
  0.7550670502796329  0.9910606937196584  0.7619737779498879
  0.0121664278741602  0.2449785049745525  0.7470527101792321
  0.2514328492615463  0.2460132208111087  0.7383334888431673
  0.4967614644995928  0.2714861100924559  0.7395967982082288
  0.7615101346872402  0.2394126042314691  0.7600650490109360
  0.9803713375647199  0.5200119556586906  0.7676859921809532
  0.2399199978895566  0.5153090359052597  0.7609059649621654
  0.4867643300017912  0.5037547108804752  0.7586539079992745
  0.7699328770544900  0.4771753550981632  0.7384895335492173
  0.9915611525173008  0.7585566778365900  0.7552084222885300
  0.2508026628787643  0.7440415504757218  0.7472143694819864
  0.5004380105383315  0.7500490917247671  0.7323270377916469
  0.7556870305697859  0.7455266312289508  0.7429300941202772
  0.1183733253834323  0.1165515214156368  0.1455865008281938
  0.3658461391541182  0.1374754076167694  0.1212948448974326
  0.6219514962527911  0.1435046358213753  0.1285303990682835
  0.8666708745418916  0.1233011945457081  0.1232981783644309
  0.1207944067677244  0.3725721711034992  0.1282532006088359
  0.3658267907927510  0.3763219122556799  0.1294477305936446
  0.6277999032562241  0.3633577876483418  0.1319237968416092
  0.8777587880863910  0.3822819127090520  0.1151765532477426
  0.1287606095927998  0.6091226892181001  0.1375749129628381
  0.3835036993746728  0.6091832541704310  0.1387821950433603
  0.6373392887944341  0.6222752257030654  0.1137083658794178
  0.8967444561119532  0.6251909902945733  0.1058062249909737
  0.1178764928965082  0.8660426364238466  0.1272924940415545
  0.3761316923661194  0.8806243359319152  0.1232949221551063
  0.6225520756640727  0.8740252383930134  0.1261486360059997
  0.8773113452193064  0.8811998326239298  0.1167075550579098
  0.1311411116675298  0.1457887673388072  0.3729334789258920
  0.3924529626765404  0.1102872254927028  0.3848909405952788
  0.6246279159583463  0.1283505386937229  0.3813699048940623
  0.8752524107266949  0.1351471730126274  0.3496089130279271
  0.1266789931354298  0.3797141341901198  0.3771139711207064
  0.3808469138394782  0.3686250531463734  0.3721863561250109
  0.6168564095734713  0.3711566421287299  0.3778998675903883
  0.8682431862281912  0.3928265636436059  0.3694636356225102
  0.1421968560902498  0.6255994253741575  0.3539982175804725
  0.3537689443553855  0.6374104082298521  0.3788818277456206
  0.6280884293190190  0.6241628935852631  0.3831335296022992
  0.8786744527330749  0.6245140238274463  0.3652042530660105
  0.1124626170998927  0.8676923487603571  0.3904669928679450
  0.3843899446672160  0.8807336476092731  0.3672214093391603
  0.6185625207985178  0.8743858241142938  0.3749193501733417
  0.8644696802994255  0.8810446243435168  0.3794395061224106
  0.1205092432235647  0.1356430313290420  0.6286946970603147
  0.3882298693523414  0.1361247738162459  0.5992869341656157
  0.6287957288771088  0.1214675435029952  0.6158559023316535
  0.8677911208542328  0.1310796073579385  0.6470030247773867
  0.1310536550905068  0.3670596131667681  0.6377644489664808
  0.4050529632272960  0.3634241069312300  0.6321916701634593
  0.6211719736803416  0.3652234429801741  0.6274448487479173
  0.8728409784539208  0.3806178720219927  0.6156051860533408
  0.1145622643341181  0.6236592495430461  0.6368220617327227
  0.3671893386959288  0.6165571908583238  0.6325181070383777
  0.6236160057633464  0.6166058330296627  0.6308058199429007
  0.8696767200958967  0.6222849683046817  0.6285119818787291
  0.1095384501590934  0.8670267533013853  0.6360958638604737
  0.3856590804403660  0.8714766934178927  0.6248167553117339
  0.6281934242087324  0.8795563778830707  0.6222032295857653
  0.8506932895906753  0.8911985759481215  0.6325609074970762
  0.1266185858011005  0.1264343496780400  0.8778781860606144
  0.3780002023658699  0.1173308812316257  0.8740572736936735
  0.6231831491882952  0.1118740012570056  0.8872003759976894
  0.8664400278835718  0.1289516471909837  0.8799354615942999
  0.1325959254697165  0.3693955788462500  0.8732498356311925
  0.3876719766911047  0.3660751244920936  0.8846008405457743
  0.6152055213472916  0.3913725043930907  0.8703843718530084
  0.8851221568389880  0.3664689474192872  0.8798318169379099
  0.1183063113821394  0.6169165941769992  0.8836663690945488
  0.3693819894125893  0.6322680036816568  0.8716246893304376
  0.6414615376866212  0.6039993629305023  0.8644545777348083
  0.9026600864826426  0.6248273240056932  0.8654854353785308
  0.1238859331896336  0.8692442503067401  0.8722872051801251
  0.3897745736985285  0.8670613052494706  0.8642242240695741
  0.6416194356827662  0.8848669979661168  0.8557978099429810
  0.8582144218352246  0.8837045592704678  0.8808624320812636
