generated by phonopy
   1.0
    15.9923497217343744   -0.0000000000015236   -0.0000000000010772
     7.9961748610645493   13.8497811253384029    0.0000000000003944
     7.9961748610645493    4.6165937083140518   13.0576988688087816
Na Cl
  64   64
Direct
  0.9964686722150377  0.9936426751161185  0.0020101605655346
  0.2722159418035606  0.9948056165400040  0.9854114016574878
  0.5043895011353084  0.9888805579541802  0.9932881627429291
  0.7491629540037932  0.0147475130387428  0.9960601247991405
  0.0152737575378397  0.2287538744784702  0.9966994373579353
  0.2327895328378419  0.2588942692808924  0.9978576363658614
  0.5063826317884075  0.2493482267646091  0.9794943288231841
  0.7375448843889716  0.2557418630612541  0.0054271536244614
  0.9947723842225911  0.5056855350828376  0.9950714413925853
  0.2431015489590105  0.4972064738592572  0.0156006077166190
  0.4943962727129815  0.4836731167733161  0.0110632980583943
  0.7504348962129868  0.4909327332326890  0.9976966669053255
  0.0021759557979059  0.7569905073152711  0.0063144373574249
  0.2482091541319859  0.7518236297872805  0.9992549652699159
  0.5004416915000410  0.7348159448505698  0.0005784591603521
  0.7350664594194808  0.7632695420935166  0.9993316899606862
  0.0048011257155056  0.0107774550296362  0.2559976885147688
  0.2717268487696302  0.0051177416635245  0.2477523134642933
  0.4895800908071591  0.0166409178382119  0.2442753560560572
  0.7520170482507168  0.0100262873250066  0.2517503696382354
  0.0180894550280220  0.2249863851565048  0.2531022098957106
  0.2255361468411018  0.2624198602344562  0.2662265941670661
  0.5004327535215114  0.2551311841985158  0.2450023430530274
  0.7524580828485843  0.2681656083619429  0.2303452300836001
  0.9931728741908216  0.5013908373954393  0.2574618315475798
  0.2306899740113504  0.5145257572532140  0.2550786783162844
  0.5039129751102009  0.5066469819819338  0.2405249851911475
  0.7507125864885089  0.4974458238742550  0.2460279353005696
  0.0035285566221800  0.7390600987764138  0.2514949612631381
  0.2455755551928485  0.7340943943469775  0.2589409576794711
  0.5044648156316021  0.7534326479433970  0.2496799531167058
  0.7507019667549075  0.7394745770119520  0.2507951585571880
  0.9823327897773183  0.0038246392577797  0.5082367970992968
  0.2236632670847983  0.0042825604000481  0.5200057347048005
  0.5105453423938227  0.9893696111852053  0.5096664799742310
  0.7429379628275276  0.0090676696739594  0.5069826337068587
  0.9900978346843994  0.2503188731324025  0.5159643571243129
  0.2638650581324071  0.2288408521677775  0.5024763264365930
  0.4896325085823203  0.2333702349038237  0.5209033147180070
  0.7417022303657986  0.2615049088485498  0.5060020107271719
  0.0025139066991296  0.5049453751192053  0.5123663968834964
  0.2329879363451525  0.5072771591246165  0.5005890586373732
  0.4973177397782574  0.4974245421271709  0.4956677064275992
  0.7391951890537249  0.4962791932363736  0.5105676273104633
  0.9774378215595503  0.7698749863088730  0.4993802532266107
  0.2516709343770800  0.7453873818147863  0.4985124302906631
  0.4884362016352315  0.7608808463619613  0.5035331179253267
  0.7526448003677489  0.7457735416333142  0.5087266524031594
  0.0045244045022386  0.0013563566810608  0.7507923629559108
  0.2538935026388792  0.0068933813805897  0.7512745951894452
  0.5057546979526746  0.9908865003793463  0.7507865585670057
  0.7610160473215759  0.9952287886284417  0.7599468400678613
  0.0027188293014616  0.2632316732870879  0.7487908560872569
  0.2474455673409358  0.2359171020723597  0.7602211724582781
  0.4926250714751461  0.2539126244922900  0.7362485676971764
  0.7499292719727561  0.2493092392748625  0.7431132663437287
  0.9867029421054647  0.5114104202299594  0.7594373382402352
  0.2395563722624430  0.4956604113493246  0.7549187330631756
  0.4673296904520764  0.5313484630031069  0.7476542664295777
  0.7606298403577484  0.5101140503102553  0.7547920759779432
  0.0087007155737580  0.7314659382582276  0.7565092250631109
  0.2505406003849052  0.7437332123773075  0.7515403817243209
  0.4988918407329117  0.7391080993420849  0.7419505592539968
  0.7444010907989798  0.7605820913707211  0.7573500674083475
  0.1194558165349762  0.1203323759744263  0.1447788684801253
  0.3683018449052703  0.1331453435394632  0.1301650957466831
  0.6268829214838153  0.1291833258977938  0.1196854019218460
  0.8692259610106999  0.1265504434885522  0.1312962737947228
  0.1181072475141578  0.3835182093897242  0.1184701452881138
  0.3775893783049519  0.3807739376395847  0.1099671729401191
  0.6321537168891204  0.3691392043025875  0.1130602919250518
  0.8712949715658234  0.3632860341219635  0.1278310066158947
  0.1215705710792173  0.6166912682809512  0.1266206114012636
  0.3807872285024264  0.6197633796417427  0.1196952508602373
  0.6188779332952926  0.6435228860131867  0.1194274397325992
  0.8673225631892477  0.6362160659935649  0.1341997740405927
  0.1257579839396772  0.8908540876734361  0.1145878388182398
  0.3756238858549178  0.8521526124467949  0.1389375470542450
  0.6379573292485683  0.8596946479353527  0.1367377275231181
  0.8711877627576400  0.8695857811114434  0.1415134909293858
  0.1401044971504525  0.1109472723605779  0.3742893790674337
  0.3804336830104122  0.1279069989976491  0.3681754588434552
  0.6403138620744159  0.1238988576725299  0.3613012695884663
  0.8863530830556298  0.1298027517580317  0.3594128992684681
  0.1272645662442460  0.3780323057229920  0.3672629539312592
  0.3762330198611082  0.3742271191916182  0.3759745089748729
  0.6243171662197327  0.3706802772434083  0.3696282893768439
  0.8763086096482133  0.3836360898318636  0.3690814624634874
  0.1350632889421553  0.6172177757082029  0.3819805818684705
  0.3648345562835156  0.6271220684531573  0.3762854114190004
  0.6299711246176812  0.6330563058030202  0.3771032961119518
  0.8732664548582578  0.6495543289388426  0.3745611466598611
  0.1161677935013368  0.8709087038926162  0.3834733353797456
  0.3832800291638199  0.8756855523403679  0.3764309036503036
  0.6262623081491281  0.8805206568917330  0.3758785363168219
  0.8669095605491024  0.8941950971729126  0.3573201861577776
  0.1330576259578681  0.1122479341475491  0.6166864483966507
  0.3644636434829780  0.1272373503670356  0.6372387264320266
  0.6199953246092602  0.1273030870267555  0.6333727291102914
  0.8678086283948584  0.1458983717646358  0.6198894525709183
  0.1182384362549141  0.3680823771886140  0.6347038421482532
  0.3690783055736642  0.3863888098637713  0.6192333418691321
  0.6337529973288722  0.3643696255201299  0.6368076885933895
  0.8650977537147595  0.3803337419236685  0.6320860449923105
  0.1113323611714519  0.6308721459526824  0.6364474893910501
  0.3727058041681564  0.6253494308079912  0.6195672751436012
  0.6332908794097533  0.6091627663876136  0.6397488391607775
  0.8643054863753800  0.6309707391944350  0.6267661682517793
  0.1196677814194115  0.8721436433752772  0.6276578630663983
  0.3732323476437642  0.8693169608089251  0.6343325021938118
  0.6191220849094328  0.8682214130038651  0.6396155552537781
  0.8695361622322981  0.8704261556115354  0.6306656678549506
  0.1185072387229284  0.1273321593242924  0.8758759879945938
  0.3814910775779346  0.1325601786751626  0.8694639711289002
  0.6195876214261680  0.1347373343844507  0.8690683429083964
  0.8662078420065635  0.1165843099836170  0.8850835863094938
  0.1350192772099348  0.3843110081610557  0.8690547765820447
  0.3679240042728913  0.3794045986856753  0.8791613750350850
  0.6135042110203890  0.3793834387591841  0.8926976664338641
  0.8772937703977179  0.3689349162156863  0.8874532325557017
  0.1299121233516453  0.6193800064086039  0.8633739447512714
  0.3723462216962670  0.6291951701249167  0.8921569522414970
  0.6139235322693704  0.6150020141772345  0.8794139052161342
  0.8693730102738312  0.6285385675818729  0.8792180028646498
  0.1052702485846325  0.8867568120851983  0.8830200588310779
  0.3663151622301544  0.8704179106677712  0.8765843728598171
  0.6181730033754020  0.8660566537211740  0.8950804065586531
  0.8677735198309529  0.8851613976631778  0.8755247280333185
