generated by phonopy
   1.0
    15.9923497217343744   -0.0000000000015236   -0.0000000000010772
     7.9961748610645493   13.8497811253384029    0.0000000000003944
     7.9961748610645493    4.6165937083140518   13.0576988688087816
Na Cl
  64   64
Direct
  0.9976750465196341  0.0013049504748120  0.9849812870320042
  0.2391800898303925  0.0204165183650246  0.9951280706486219
  0.4960675308659461  0.9965565311259300  0.9857595329004365
  0.7553374527281055  0.0155062484862683  0.9800063275486924
  0.0090777208286812  0.2427614963131900  0.0038424531038573
  0.2522683586140121  0.2674863317621372  0.9968491776250564
  0.5038457553877322  0.2191173382446794  0.9976947427362466
  0.7472774088304226  0.2620502337808328  0.0008039253733567
  0.0154984682092891  0.4908051628210357  0.9811102679556338
  0.2601544620583868  0.5016487724339111  0.9938341177961463
  0.5183207860668078  0.4824439212617039  0.9920473984942395
  0.7369453459909734  0.4965822709392614  0.0149963550048464
  0.9954939348735794  0.7511696964064078  0.9917430708056176
  0.2574398492244215  0.7510597677249556  0.9866384500854811
  0.4931170480813926  0.7556235639406137  0.0027207177347704
  0.7294837955687501  0.7604817634751001  0.0051684160046331
  0.0061004994532791  0.0054548749677630  0.2323982199225851
  0.2398290126781576  0.9957631889708306  0.2607434737405085
  0.5088096434250190  0.9956657542445562  0.2373723919929447
  0.7240195171335045  0.0125702089231089  0.2620615756353061
  0.0067944063083518  0.2318750644754184  0.2379849399289987
  0.2548179941620161  0.2479797114677335  0.2482723305357237
  0.5215589273678748  0.2284613479141651  0.2472768372909538
  0.7400306288801717  0.2551216781019526  0.2642151763084592
  0.0092354244411810  0.4855356003118884  0.2617721340456229
  0.2675883535499592  0.4780434016053844  0.2542915389609072
  0.4757582946591261  0.5063165673591649  0.2574496859880749
  0.7382357113513714  0.4910242791658193  0.2656134745007396
  0.0088520104797219  0.7365216026261325  0.2421610803834231
  0.2455618338166635  0.7524009747336117  0.2585599120045011
  0.5059098850396170  0.7525974475496328  0.2525202652205390
  0.7590839384652942  0.7296159489201982  0.2453111184836538
  0.9853265867119452  0.0118365692666401  0.4902836060328051
  0.2453589488178386  0.0032403440638116  0.4957702412881986
  0.5082196070963949  0.0089280846973737  0.4853970228122602
  0.7664499612438151  0.9716346476799550  0.5103117763008769
  0.9954119761696365  0.2733514782859278  0.4849392266273608
  0.2595231791926255  0.2510596504393406  0.4901060912002450
  0.5197455942444016  0.2352145561986282  0.5068292941637191
  0.7411370830946340  0.2603733954803154  0.5110063019135667
  0.9771551654939393  0.5120723957093503  0.5107479665590510
  0.2438094623146073  0.5162112557401258  0.4981272803683230
  0.4877457034274938  0.4989871923823719  0.5106271511649861
  0.7327448445263666  0.4976152333271769  0.5133683022658834
  0.9911289043800859  0.7485377068538959  0.5042172890576904
  0.2234250089940072  0.7458569685563221  0.5180321411973841
  0.4896147310147858  0.7592231256812852  0.4945928706292809
  0.7406577825990143  0.7351366626936160  0.5142868845225445
  0.0008396808368296  0.0035365419293027  0.7294420651443214
  0.2339121278971514  0.0072702742704174  0.7455538097116183
  0.4965749368552270  0.9919277153559728  0.7583846778165567
  0.7584715445646781  0.9955506183119247  0.7583599091144776
  0.9849378361037393  0.2461061474022590  0.7533133021848178
  0.2588896362079163  0.2408758759154662  0.7491670075342541
  0.4899593268904139  0.2662380336354936  0.7577019736687590
  0.7432573126584405  0.2680959384365729  0.7540600806351800
  0.9837821927503348  0.5077048342069244  0.7536933929789341
  0.2435885584847090  0.5163348421166697  0.7338693469659336
  0.5059286770696070  0.4899248331340354  0.7542087610330589
  0.7637771416666082  0.4912319950217358  0.7427681677818256
  0.9821486138989963  0.7524968170394866  0.7689395924019546
  0.2303227261594822  0.7504649293635659  0.7638117230290895
  0.4929980387619386  0.7304495474107333  0.7545334142464649
  0.7608818311777966  0.7477201821874906  0.7437406319080244
  0.1199295158649426  0.1315192644738174  0.1255524009982370
  0.3862512918226414  0.1181452326161863  0.1220196687911398
  0.6235383448081361  0.1204822223515555  0.1256747223195760
  0.8743091926154570  0.1373653506736963  0.1095283168896824
  0.1269525119877272  0.3860872299504017  0.1192237114663659
  0.3725277202023046  0.3755449883885959  0.1157830169922626
  0.6056371857608831  0.3812435670749790  0.1269323952628968
  0.8582250342169058  0.3865037644340523  0.1418171926817651
  0.1230508941530238  0.6283676084974565  0.1176848475090412
  0.3803481968121650  0.6075694764045623  0.1336870392551515
  0.6057871843903191  0.6323749044062683  0.1366585046506323
  0.8842300675238730  0.6277051940982903  0.1269745108720368
  0.1099369116456087  0.8800947825480827  0.1305024890734308
  0.3608089575918797  0.8828789497636932  0.1292710211475909
  0.6392017640215371  0.8669142558912702  0.1180521648103560
  0.8813548280800174  0.8717713984702704  0.1250294808586394
  0.1209165227404704  0.1399382624606219  0.3746254123237450
  0.3743010046396000  0.1349595163816225  0.3804286200384396
  0.6395436275468773  0.1111343982060282  0.3632725145511630
  0.8773633519485424  0.1363287486481111  0.3767319500236768
  0.1284539819367639  0.3993105463828570  0.3756899775183298
  0.3637503085603055  0.3835242850535475  0.3800224827079609
  0.6243887224859278  0.3833181723406645  0.3687334499030683
  0.8679421588347385  0.3715106856810799  0.3811680567188999
  0.1122064646602253  0.6170072709624934  0.3888926394100106
  0.3561655899136005  0.6385253975116520  0.3533204170753660
  0.6214156755023510  0.6167640122111533  0.3858580468898620
  0.8861262472717214  0.6217643013696569  0.3703500757394958
  0.1315789712436354  0.8672368091710025  0.3881035694664235
  0.3809972602485152  0.8698492838392561  0.3713914470579057
  0.6271547317040566  0.8906492092966807  0.3499428423082721
  0.8741640206664568  0.8706805406750123  0.3664644629911020
  0.1231205788598019  0.1122857386281619  0.6432629695927480
  0.3878822581304242  0.1237257001848603  0.6176971796511803
  0.6224221301678241  0.1155928558548399  0.6206318551735025
  0.8901454891866730  0.1243175760515554  0.6189717826862257
  0.1136225875118768  0.4009608958014751  0.6165906128226274
  0.3887722014461132  0.3599641445281910  0.6342101599033257
  0.6314731833787575  0.3778069779058412  0.6193949646541865
  0.8756196674900376  0.3724155269443030  0.6124843860795818
  0.1171604458917667  0.6354029024554713  0.6326947186284004
  0.3845500278446211  0.6294722342007797  0.6179742491574923
  0.6315135442964982  0.6293122969937183  0.6234626185757952
  0.8770591267876142  0.6170792683541358  0.6332424042783478
  0.1129520327941813  0.8834158506951558  0.6378012040337041
  0.3654683855258944  0.8761076952428196  0.6322885584743587
  0.6383860095683334  0.8690072954303247  0.6093869043704209
  0.8673867605240633  0.8714339302223202  0.6338804752352658
  0.1348528370773434  0.1165505828520033  0.8789378784243176
  0.3744621331172608  0.1397937019756839  0.8640130079626276
  0.6389276737310561  0.1143492624924732  0.8826627896037537
  0.8873980097807272  0.1103718711688000  0.8820828805051848
  0.1301823717500026  0.3616260335045255  0.8790343855817041
  0.3624761176582438  0.3776843885019062  0.8871268852632666
  0.6064142293345876  0.3854945321714253  0.8694911340228260
  0.8819603632168066  0.3596657629743168  0.8644702506761036
  0.1282593930074661  0.6149260388467578  0.8698833632440848
  0.3769822338910709  0.6187262048528148  0.8769217781689372
  0.6314146625198954  0.6289801780871879  0.8674800682176923
  0.8832581365159554  0.6335693803550405  0.8763120429518338
  0.1160947084360517  0.8852243205664305  0.8682003781810552
  0.3821256065498469  0.8820653551922168  0.8601732183686736
  0.6306856181603486  0.8715954036503955  0.8797823086337933
  0.8651627601910850  0.8876218325767475  0.8821863779495874
