generated by phonopy
   1.0
    15.9923497217343744   -0.0000000000015236   -0.0000000000010772
     7.9961748610645493   13.8497811253384029    0.0000000000003944
     7.9961748610645493    4.6165937083140518   13.0576988688087816
Na Cl
  64   64
Direct
  0.0246847471852825  0.9829720824114349  0.9761901614845038
  0.2585284619531125  0.9887747709384247  0.9994383780323349
  0.4911682260471750  0.9913190095644103  0.0092650465802611
  0.7488355216386716  0.0235582366835844  0.9852178703889901
  0.9911576247844095  0.2514969178776591  0.0037053593734620
  0.2476924924410071  0.2569504039403826  0.9944117137265176
  0.4766927146301069  0.2489591202950017  0.0232078944072083
  0.7537244217378584  0.2374830525433127  0.9949141807611744
  0.9921356283864234  0.4942540753029959  0.0112175830676689
  0.2296856946708615  0.5054633952220485  0.0074207862209383
  0.4978789218464204  0.4941231105571829  0.0055125445650758
  0.7418442308131385  0.5097592942084458  0.9956812219715216
  0.9959332990409060  0.7551267810182808  0.0126800154743699
  0.2471788620570457  0.7435426364627008  0.0178155204705216
  0.4865382098548327  0.7455053623079799  0.0148693327425911
  0.7418097339269829  0.7584662865418840  0.0062065024416171
  0.9900155175695080  0.0074224602147973  0.2291780033576357
  0.2452979418731368  0.0059629053173953  0.2359634945376108
  0.5026928715357288  0.9799497074317779  0.2550568464362858
  0.7304414400676875  0.0228528324351782  0.2452873103683137
  0.0173930578495702  0.2486223140305479  0.2538039391957432
  0.2474142481280988  0.2629429349109372  0.2439026381289487
  0.4870935891723617  0.2633175453428062  0.2534009355405791
  0.7522812426568262  0.2634711243686779  0.2331642380666839
  0.0133750876781378  0.4932401514448515  0.2444753914696631
  0.2400484012410344  0.5037192529001567  0.2298341283241499
  0.4952721559307698  0.5105596300745757  0.2660339176410392
  0.7526192118259308  0.4958759436857296  0.2509442601211417
  0.9775862667647695  0.7373927400531876  0.2659855259797838
  0.2359906367934435  0.7491876600490310  0.2451046394073839
  0.5156984670263661  0.7562479663207528  0.2277716313296455
  0.7625400812672818  0.7367429975839882  0.2492079938762470
  0.0153797998899049  0.0011297402084728  0.4872413516422738
  0.2543516125953174  0.9956760721133632  0.5050599150644451
  0.4958934955483563  0.0129783768993555  0.5009674549245222
  0.7408434402782368  0.9934383304159276  0.5069199887299796
  0.0151125036472304  0.2428210707464269  0.4891600476315603
  0.2739575828928498  0.2250266107588214  0.4936514813558576
  0.4846481838174265  0.2487739534834774  0.5083442487261394
  0.7530527688053421  0.2437296325727999  0.4958564222094165
  0.9973973880781963  0.4978466516031006  0.4842518379430849
  0.2252286228274355  0.5085485925770630  0.5170943232411103
  0.4990160961563964  0.5054283074110082  0.4942032084883696
  0.7462215368283280  0.5067901940045446  0.5085500465190265
  0.9889875396304106  0.7439471415847143  0.4990303188507936
  0.2514064020252045  0.7537860580246020  0.4867185060180436
  0.5100524881248301  0.7554912461289918  0.4942088829969329
  0.7487906880276487  0.7503982399282965  0.4979432906333441
  0.9868399772222830  0.0117366100788586  0.7529014601045551
  0.2401771743312102  0.9903775743028801  0.7586005550658282
  0.5164438437135197  0.9950582045487293  0.7434618768815221
  0.7498257081868422  0.9940318578816356  0.7481521236749283
  0.9971949909229497  0.2509733827456775  0.7550827894107248
  0.2548805166374026  0.2535151115488682  0.7413603960987790
  0.5059015978542820  0.2245279009569414  0.7532369582196228
  0.7444739313560225  0.2588314224362402  0.7483562174034779
  0.9961168035096595  0.5087600755247483  0.7519070272996196
  0.2555037509641572  0.4922922328942562  0.7521690385317408
  0.4875946268737875  0.4924215827894174  0.7645665736033974
  0.7341967861207195  0.5053984127598991  0.7523821253150353
  0.0100502448893651  0.7476960527434333  0.7573101798069855
  0.2438447114302148  0.7660663460409196  0.7352274403093125
  0.4924012708576405  0.7543269337286326  0.7757690360600156
  0.7534919650671569  0.7495516108388744  0.7543951693525699
  0.1108467234219756  0.1279717498146374  0.1167600384135725
  0.3659210011340436  0.1300820000892063  0.1144332171613974
  0.6249871425241127  0.1318290843881664  0.1145232173207310
  0.8892698224155784  0.1118177730597298  0.1100958476283987
  0.1280333070006568  0.3867625975117112  0.1335541747311385
  0.3615432109549406  0.3825310630442808  0.1346243556636072
  0.6314923015844686  0.3925890835007662  0.1136328415654561
  0.8881546459841472  0.3650792101525833  0.1213780131082238
  0.1189531846656888  0.6342426285763664  0.1267450122345626
  0.3606225023668630  0.6337068204708792  0.1398388667083844
  0.6202380189514426  0.6339506255757953  0.1223598109308576
  0.8772048066751076  0.6243700368223097  0.1093775056268260
  0.1473910842386807  0.8632740370032155  0.1118911697021118
  0.3684918237542228  0.8821641859729897  0.1239180825490845
  0.6187581847810524  0.8836207415554910  0.1121737334108292
  0.8774542243506359  0.8679266652640658  0.1304304487764939
  0.1250344354226603  0.1119386718011766  0.3941091920225755
  0.3560001294440238  0.1157142410024535  0.3951249764141400
  0.6107548468128425  0.1315037488461796  0.3660590035204691
  0.8747614617701873  0.1136620701078083  0.3755646073254799
  0.1208152960754392  0.3921467743601783  0.3582784905449640
  0.3453630754704787  0.3820792239595532  0.3794075790948218
  0.6402169311800295  0.3788296558893354  0.3697156676792805
  0.8624168160086892  0.3807978577630459  0.3856554946077540
  0.1335894462366793  0.6282365235672946  0.3613368161479851
  0.3670252119410951  0.6357074557218191  0.3637281447798488
  0.6176924822253039  0.6204643757129854  0.3772487090313684
  0.8664534535573506  0.6267985560543490  0.3768871729387783
  0.1400523923039473  0.8640942731396459  0.3657233071256961
  0.3858147513687397  0.8761414781655127  0.3658425282938265
  0.6223139118196735  0.8794786863985036  0.3661236592533249
  0.8913584003054267  0.8637652100171871  0.3802080987645151
  0.1147321735894781  0.1239443445428691  0.6235022943459558
  0.3862431986777478  0.1125370541381183  0.6338313846023700
  0.6292925664008053  0.1234907574218043  0.6248249659640122
  0.8786332219888535  0.1275637991429986  0.6222375542287353
  0.1209505591673111  0.3810122852546968  0.6240663169602593
  0.3765535757892150  0.3704846814332525  0.6193103559912241
  0.6271132779260356  0.3804241119711785  0.6191195395856491
  0.8694212580610122  0.3875940860719713  0.6189510320725596
  0.1227762169096649  0.6412580358146741  0.6383943473757725
  0.3583165378142805  0.6214470448083449  0.6346960068187822
  0.6135716976896142  0.6214725203723328  0.6329318092390936
  0.8904171286276308  0.6091652839564594  0.6196919026434214
  0.1222641998111486  0.8865620159767043  0.6300819506447530
  0.3787564508320387  0.8719861350989588  0.6189512386258136
  0.6322284884549508  0.8735933439288406  0.6256736066039226
  0.8799281809587552  0.8806865411839804  0.6184366773846732
  0.1310992319715687  0.1258964335915892  0.8792313823230749
  0.3670092716751261  0.1078002018381430  0.8916147442468753
  0.6227803455867564  0.1279388566749881  0.8878288970049035
  0.8657604803837466  0.1319792425210327  0.8767211673162292
  0.1156651650158178  0.3766099544989769  0.8712813410505859
  0.3643699230001988  0.3786790748455214  0.8729301422635034
  0.6210215522301192  0.3992333157277544  0.8717452588006028
  0.8696508252188118  0.3853979144410994  0.8733696152634002
  0.1300352925295077  0.6360216335353275  0.8726236834246104
  0.3652958816494842  0.6254061160044730  0.8733842396045847
  0.6310668484198572  0.6271066558320600  0.8706233117429644
  0.8785214699333699  0.6352957953054776  0.8590996469957931
  0.1241882343379506  0.8716774454570781  0.8731749024475349
  0.3658109589210766  0.8834107998733088  0.8789191220195429
  0.6126218442326490  0.8856124336070861  0.8838990131044135
  0.9015178556544290  0.8549694675144057  0.8751399217482666
