generated by phonopy
   1.0
    15.9923497217270576    0.0000000000000000    0.0000000000000000
     0.0000000000000000   16.9624484030100007    0.0000000000000000
     0.0000000000000000    0.0000000000000000  136.6046782665247861
Na Cl
 192  192
Direct
  0.1913721757873265  0.2349573676679085  0.3788661645442230
  0.4409048483740957  0.2461204364373502  0.3803705033319630
  0.3334301705519313  0.0656490539819579  0.3650693018716991
  0.0719440244143711  0.0699243591448232  0.3661751135751671
  0.1792909851335177  0.2525898072176108  0.4104869780287864
  0.4423286080432331  0.2392274473059788  0.4114676704203588
  0.3219731454284481  0.0648027137679459  0.3955183033550199
  0.0773259770153467  0.0709836102985245  0.3969683197256047
  0.1780936510217471  0.2474956010344269  0.4379399927424403
  0.4518992915210074  0.2266205458415912  0.4392299389732385
  0.3193815496491637  0.0724024207848086  0.4255771740554006
  0.0647700015423794  0.0606193677170003  0.4239538037743049
  0.2025496097434451  0.2460595516668073  0.4712567509135911
  0.4410753533161574  0.2370995682469128  0.4683950549100632
  0.3326058865677947  0.0673336677730547  0.4517305412914255
  0.0736027407348230  0.0747525276201880  0.4536496525680590
  0.1969078792665291  0.5751246738877165  0.3802850263372491
  0.4478550490196531  0.5632147770721010  0.3786822523335677
  0.3221637530341621  0.4081694614439293  0.3661097136053634
  0.0827554744808913  0.4157825526432296  0.3669312337549905
  0.1836861790186577  0.5716718238531302  0.4105708970546412
  0.4441503695995165  0.5621899210628301  0.4092161090966707
  0.3115760889715916  0.4020958421114368  0.3946272343969693
  0.0764799968111776  0.4056272969438043  0.3951989248316805
  0.1868311334656225  0.5666670336938645  0.4389928673747717
  0.4557168926150929  0.5755483144204316  0.4403883964638439
  0.3316822285848312  0.4017627253651408  0.4245460043624953
  0.0724453608388563  0.4131902249938018  0.4251636772302090
  0.1975171605586394  0.5643087105506333  0.4676651909642578
  0.4464689368288179  0.5646496870519618  0.4683684727243072
  0.3197645277658227  0.4158257132137569  0.4555324831596178
  0.0578462935095812  0.4046523671689278  0.4540146287943130
  0.1864592261515537  0.8980108378741725  0.3809804221241699
  0.4524395315927723  0.9015724776973524  0.3813092028859459
  0.3332237596934854  0.7276548613168498  0.3657429627522231
  0.0746630369179344  0.7342040737938619  0.3663524471511871
  0.1869113661525262  0.8952952020270210  0.4093004895409237
  0.4374770048248388  0.9024146463422080  0.4082904100878725
  0.3147719212175918  0.7382924290456345  0.3946264982546381
  0.0664821334487378  0.7502544602633816  0.3950187837960490
  0.1674871270412175  0.9066012217931725  0.4420876986510440
  0.4184892585329261  0.8904498005314253  0.4393934120737127
  0.3181691532150012  0.7430634274554291  0.4257157939596713
  0.0684399305550375  0.7285164958569060  0.4247471350435885
  0.2004085277968699  0.8999857522049557  0.4673770606997745
  0.4407414815909192  0.8935489844300070  0.4684753166923096
  0.3087477875249298  0.7534481922624323  0.4530265966868187
  0.0626766808635124  0.7419333963806025  0.4536116581445099
  0.6884560217125363  0.2418972873640761  0.3809684963675145
  0.9235513533172448  0.2464395159615978  0.3799196089273752
  0.8168615384677043  0.0659010418395876  0.3658186996736024
  0.5722021428113387  0.0640364126889264  0.3670046226239506
  0.6917357505322864  0.2320432282037345  0.4113105867988836
  0.9470607800810781  0.2271516252812300  0.4105347343966840
  0.8295298955385397  0.0684671033947271  0.3945399344177938
  0.5610241892198020  0.0781456419352633  0.3957673502267176
  0.7069263359849929  0.2422006882275497  0.4395729579355151
  0.9541646256744776  0.2532860319963114  0.4420199785743591
  0.7935647131130519  0.0790372501918406  0.4252683335224330
  0.5481796002107955  0.0768646028900729  0.4265281899899832
  0.6907224603606092  0.2409495455926946  0.4671711848642764
  0.9345751528661481  0.2465696521403196  0.4693238881142403
  0.8152965231925192  0.0808088312455778  0.4548567629676913
  0.5686815579379501  0.0702224712878911  0.4545660484874715
  0.6827633344692390  0.5720410842060782  0.3816177626954506
  0.9316282182400728  0.5572099382828386  0.3829020479401801
  0.8240898649005943  0.4173189489537202  0.3670980912653329
  0.5867569180784555  0.4068761021646431  0.3670193168909960
  0.6898337253951633  0.5661722701526466  0.4094925796291130
  0.9368028715417264  0.5674476526690949  0.4080921052229073
  0.8156583597241026  0.4052275893739483  0.3952439006799016
  0.5758585512866204  0.4164751914690920  0.3957158017740705
  0.6892266447063453  0.5609413427092917  0.4382318066092624
  0.9256454089281946  0.5609140114587524  0.4403153337511512
  0.8118765450471436  0.4038809111042623  0.4255703299006567
  0.5775818852583990  0.3954961620920160  0.4244046531278765
  0.7009759065460952  0.5625666850572312  0.4670293575021843
  0.9311387194633181  0.5711976991418031  0.4674088806797516
  0.8152220467359484  0.4139608200800414  0.4547204746989441
  0.5710045382538793  0.3894746585488731  0.4552909211379270
  0.7014962496420140  0.9212416369947732  0.3817766727920230
  0.9470667820652455  0.9013436059265663  0.3830996183535907
  0.8151253238502867  0.7319958605954459  0.3668513004896219
  0.5666100323630046  0.7289763253477713  0.3653720736073638
  0.6923257382703027  0.9152407179805143  0.4109524890337767
  0.9356400883225915  0.9114797834696282  0.4107183916818555
  0.8105406006480574  0.7436222923194479  0.3950987561265391
  0.5613493795452519  0.7282266784808799  0.3955761254071076
  0.6951271886792260  0.9034507625354852  0.4394548867760186
  0.9301230484494579  0.8888694275430613  0.4390302696447096
  0.8165533127856778  0.7330030218337605  0.4246051447669862
  0.5712637517112975  0.7309389717139820  0.4233340188368216
  0.6896838893988123  0.9106047055595861  0.4692724278001431
  0.9320025644571235  0.9172887310199309  0.4687325408126132
  0.8255393023804120  0.7288296175339835  0.4523534426029564
  0.5645127897557656  0.7393683881222423  0.4554680059925226
  0.1852745902080538  0.2568754828750768  0.5459521045208618
  0.4104778543695488  0.2518479115492319  0.5464735087017737
  0.3097460483099829  0.0820228578425982  0.5318134653955423
  0.0533406197397211  0.0904801679478223  0.5311898311868805
  0.2058870039760780  0.2470957599262934  0.5738663323398361
  0.4574164621655585  0.2392623397838642  0.5740298537842504
  0.3141597615518443  0.0738767288534963  0.5586620905383803
  0.0732056270883182  0.0680495172775977  0.5592353980986799
  0.1861224549859842  0.2449413454091985  0.6044987320922560
  0.4387892544522765  0.2538976169791783  0.6054258892595505
  0.2997528192126220  0.0765238108050982  0.5905033691337123
  0.0797853708333137  0.0855639109406957  0.5890210734373170
  0.1879215586938869  0.2511162238755906  0.6334924396366141
  0.4340419980499006  0.2413187809544738  0.6324710138724231
  0.3081515869501275  0.0848158690556355  0.6186338107964957
  0.0506909932106973  0.0814543503496406  0.6169180702243375
  0.1797520606484971  0.5800604763653737  0.5460094738538698
  0.4401727108711062  0.5748442495881682  0.5471962260210760
  0.3138405799658804  0.4062767085900097  0.5313720803959958
  0.0410442835421905  0.4124507594190139  0.5315133152090531
  0.1896030096899107  0.5795679694729738  0.5743911564982843
  0.4443600580431700  0.5840862515186585  0.5760780643109946
  0.3125473934727884  0.4150545817515381  0.5608702831004495
  0.0546169160726016  0.4140798096088057  0.5616687102205284
  0.1900842688414241  0.5807735107097904  0.6056009787250086
  0.4485700490434161  0.5795825072910076  0.6050937619326688
  0.3189112784638230  0.4154449744750747  0.5914077349046473
  0.0667540112395979  0.4063709057379656  0.5915377152675505
  0.1784266811019269  0.5892223313000748  0.6337868473047854
  0.4339670713163992  0.5790393609487647  0.6347121128339056
  0.2987689727379591  0.4069198626722721  0.6211894209921623
  0.0557012346347877  0.4064739342391510  0.6195768222672322
  0.1727188440082728  0.9032650805352544  0.5444548525961248
  0.4313391170143797  0.9144533739616769  0.5451479696797391
  0.3252341495857903  0.7453517304567056  0.5315140254511407
  0.0523487977960712  0.7396443597204091  0.5305534488768940
  0.1766708172425052  0.8964498954677074  0.5760612937702391
  0.4416417238667781  0.9108194216689106  0.5767551371242307
  0.3099352723565508  0.7430912310439398  0.5595080767372669
  0.0809828475056027  0.7418733377556022  0.5620320538110455
  0.1989721256106659  0.9083054732676826  0.6029180965179052
  0.4426159256099158  0.9122035679490010  0.6052219944688590
  0.3142773145790968  0.7518231125155118  0.5893106705868858
  0.0471563179072729  0.7497805987570278  0.5900977943623456
  0.1927921471821665  0.9109263850988687  0.6341325778023699
  0.4585659639623036  0.8995156400486052  0.6328620474210050
  0.3234052136772548  0.7441376785390865  0.6196883716376401
  0.0611585060106897  0.7536411348210292  0.6188760999066816
  0.6904060652015972  0.2369158857755660  0.5438310679356129
  0.9443272048319984  0.2583633423212209  0.5465944881607092
  0.8119600003449375  0.0854254621508197  0.5312936766426247
  0.5597166937715279  0.0761665226986008  0.5294704610626947
  0.6867060152129922  0.2557080417557587  0.5763449298958804
  0.9501729128549871  0.2484338224408071  0.5756324260401003
  0.8096632936762658  0.0750421810954930  0.5603856245818227
  0.5664376876193158  0.0812788451032245  0.5605512490251263
  0.6870672455711963  0.2567818650842734  0.6045376472391309
  0.9346202381868373  0.2442620319076551  0.6032058623382114
  0.8086816397683957  0.0802322647380712  0.5897820192981915
  0.5476499164636344  0.0765345181510483  0.5895600735034184
  0.6859246944295666  0.2485654399553872  0.6345346083939982
  0.9400673777494439  0.2264320161955381  0.6340383517339601
  0.8082947251644883  0.0859478846153866  0.6196287511446227
  0.5568272633297484  0.0758247050532637  0.6189995105115268
  0.6978432559547915  0.5808271234280074  0.5460133325606729
  0.9323007897378625  0.5788899850283783  0.5479672356571993
  0.8030515186560274  0.4126140908079612  0.5304921716409371
  0.5470633460870094  0.4047546257833331  0.5310828486041688
  0.6841425705354363  0.5823911236470756  0.5762310900685412
  0.9485038758052591  0.5767978214819804  0.5747448208288846
  0.8076724242768221  0.4045915483847372  0.5594841773367983
  0.5590767024513297  0.4322500931090097  0.5600354792210041
  0.6911864484661744  0.5784616166294380  0.6019606551957728
  0.9229173189978751  0.5888764968077626  0.6053324430345940
  0.8235497933368545  0.4197836422693904  0.5897667678111619
  0.5539732478790396  0.4127058521522101  0.5913538956678219
  0.6798489170099382  0.5739921996974116  0.6339095336163711
  0.9430818972423363  0.5709504187163413  0.6354063391215349
  0.8085237607498708  0.4109198178066272  0.6175873125600975
  0.5723031416717193  0.4118666130164743  0.6190194526492767
  0.6757351487688301  0.9187886971653646  0.5458932813653816
  0.9439159522125743  0.9109003015086720  0.5446914532246688
  0.8339243368789455  0.7507455249028444  0.5311036152409645
  0.5610858801147055  0.7553378944680644  0.5325283292209898
  0.6882151103678740  0.9126171268327060  0.5746209862754329
  0.9528869287521545  0.9258473347848639  0.5759919624925016
  0.8131904986454802  0.7407784142308063  0.5596250193578994
  0.5627839412054741  0.7415277878906098  0.5616833489646508
  0.6820518921179377  0.9092726553485527  0.6051046875676730
  0.9530951528313082  0.9069568475327425  0.6043173628914743
  0.8149312813724422  0.7631278165391686  0.5923156250176701
  0.5581489465522956  0.7481521894179453  0.5908215957132030
  0.6865861088889517  0.9136383819549893  0.6362584560765069
  0.9213170948853099  0.9266576722783547  0.6339102194990034
  0.8194677601852071  0.7566699960058252  0.6180452420681067
  0.5499367120315778  0.7485815459963806  0.6202656430328708
  0.3194626952358561  0.2442791396990805  0.3659935163717924
  0.4536058322364562  0.0690894894557246  0.3805917840924706
  0.1853798333813880  0.0744390743171437  0.3805191174851110
  0.0562155856721040  0.2316988269505344  0.3663296892703838
  0.3276189519248845  0.2364187012094870  0.3955117627219530
  0.4317479523034876  0.0717501343603184  0.4094584231867178
  0.2001308981760465  0.0624018656340202  0.4104395862686894
  0.0628329141466444  0.2510858838974836  0.3951136914247023
  0.3198747745665202  0.2451535539179495  0.4230382562975171
  0.4299926968886300  0.0823018500011336  0.4378905134186085
  0.1987779928023738  0.0760202489179441  0.4377438140018254
  0.0684880945795038  0.2328599579524501  0.4258150752729665
  0.3376038635943684  0.2380262685154167  0.4534325880181661
  0.4453982118313321  0.0759075558258354  0.4694865728969252
  0.2036297619046062  0.0851995783723487  0.4693837804405081
  0.0689888910443793  0.2313416297666530  0.4535446076971850
  0.3158467829159951  0.5648097354536479  0.3669493144840161
  0.4458478262748900  0.4043069942351735  0.3809624758391575
  0.2015508232991882  0.4049658640116064  0.3805787145117850
  0.0565030687405050  0.5784225974946546  0.3667838495191282
  0.3165913335826899  0.5643504901515718  0.3963450393528600
  0.4369838181099741  0.3991147710835124  0.4099501197471721
  0.1862514735470547  0.3989737009111599  0.4096995365799175
  0.0643373914006245  0.5599481734513372  0.3967813638988382
  0.3124039644558405  0.5652374297294723  0.4248787528145823
  0.4383106006663492  0.4118198999396416  0.4394243278699773
  0.1967610423987256  0.4106947149963270  0.4407032066382457
  0.0605099147294693  0.5631549438413787  0.4238043287022369
  0.3088819351089665  0.5876981696362567  0.4538258830001006
  0.4494019690090700  0.4156113132926935  0.4694913766660566
  0.1966438842082023  0.3891516495863488  0.4694893411891505
  0.0865026795638246  0.5669981510210865  0.4541432013675014
  0.3191492800132034  0.9120000207167318  0.3659639014508911
  0.4560161821169932  0.7470621759983527  0.3798801240569501
  0.1886896923782947  0.7437103155143057  0.3795840753946055
  0.0676655382972348  0.8962671823622766  0.3670909126640621
  0.3258935326561149  0.8962397456942115  0.3949573375642401
  0.4444244333438502  0.7290653056459160  0.4081899829734292
  0.1886024916966536  0.7512602708396462  0.4088042551064172
  0.0710756913266064  0.9062480818663178  0.3949591450862768
  0.3109202789080172  0.9029279266914640  0.4234139319219530
  0.4515064962957265  0.7268981330276583  0.4385136883087075
  0.2038738963260427  0.7328983365204604  0.4369770280348235
  0.0525524120945872  0.9082427929495990  0.4256506849875256
  0.3124470601277680  0.9145867779283972  0.4556257645065818
  0.4497471397036101  0.7319694833735155  0.4683826454481190
  0.1718481334232777  0.7411752181611907  0.4685674826567653
  0.0593156899278229  0.8967326789236366  0.4533601450841931
  0.7981775820011074  0.2356486871275487  0.3671520105686132
  0.9368918283732798  0.0669117912269390  0.3806046612791373
  0.6905855994678872  0.0718691157176549  0.3805245892064610
  0.5675961885742974  0.2265490982349566  0.3660593860843424
  0.8117858714328798  0.2289562072914393  0.3967860771296077
  0.9460783957834945  0.0641889549235312  0.4098256621425297
  0.7031124880527838  0.0730483973115161  0.4109012391941002
  0.5685968032640226  0.2242386886749501  0.3936166248036306
  0.8059232247977389  0.2417543508622760  0.4255364920060342
  0.9367482676020892  0.0712884679141599  0.4395760038423559
  0.6927300106218567  0.0686989222442207  0.4402463868251221
  0.5778808262790327  0.2342473529591057  0.4242310547637886
  0.8209828578739043  0.2350584571454774  0.4537274341224453
  0.9368174956419374  0.0549886891092501  0.4660771033736916
  0.6906685509376139  0.0723276390194888  0.4695905386432460
  0.5761752723059941  0.2337897596375078  0.4530866117307457
  0.8257143517884025  0.5655400360083447  0.3671620504002832
  0.9402103800676629  0.4037080050175396  0.3803865503021298
  0.6842761838924716  0.3953527362772001  0.3811405514070505
  0.5718902632589734  0.5764309200203001  0.3652398481657926
  0.8202054576648750  0.5773339340139362  0.3934681813780171
  0.9419855810558960  0.4026339835370193  0.4104485822366802
  0.6817628997272265  0.3949545400213113  0.4104206625511574
  0.5580163598218134  0.5845757192112371  0.3957879059254925
  0.8055686879703335  0.5741569265053640  0.4240814998434305
  0.9403575586614143  0.4102400680945770  0.4386771874457785
  0.6786072732744151  0.4060841486091837  0.4396101096978048
  0.5700522006819725  0.5628447641917522  0.4239018930591281
  0.8035568571664694  0.5765119716027806  0.4531601057551044
  0.9325627741826455  0.4072695592438847  0.4681779375234004
  0.7002116209729670  0.4138960357395209  0.4688406650786136
  0.5511008571717794  0.5726224558216791  0.4523269462786560
  0.8278311257689821  0.9089921231246733  0.3668671924264792
  0.9362205104274588  0.7356171135902628  0.3802445975225900
  0.6922173751989518  0.7402892851010423  0.3802937864691697
  0.5628668719688893  0.9011550739290112  0.3646979033667427
  0.8204218696561411  0.9054408950391313  0.3954888626659240
  0.9319597692804057  0.7339305049921089  0.4088321020885446
  0.6857231847987275  0.7276287555450486  0.4092655404788036
  0.5591713404149422  0.9061732444273671  0.3947956842916566
  0.8178428030712183  0.9033763290872404  0.4259873660667612
  0.9380835057209612  0.7409656713994742  0.4389846065537356
  0.6844760728401544  0.7342825220026932  0.4384666661196587
  0.5571484569779653  0.9056025810361957  0.4252051178928736
  0.8173227509708424  0.9054350555670578  0.4527468002603787
  0.9421646412596406  0.7378523904873413  0.4689109418822794
  0.6981519909318445  0.7348950520740719  0.4676890699117832
  0.5763341462198999  0.9125498829240417  0.4539813923389379
  0.3222190514649125  0.2370530831715620  0.5324229535305773
  0.4364751468397720  0.0802959059572956  0.5464717643384256
  0.1935082589472636  0.0919113742586077  0.5460542650086051
  0.0525167545853421  0.2501918742531987  0.5313002094490320
  0.3062264322424684  0.2454643385559340  0.5602147589763802
  0.4388815237193986  0.0788906757327925  0.5759232742552980
  0.1783751347592853  0.0765546315953635  0.5749885439630938
  0.0733286297942012  0.2493806033753642  0.5614234671053933
  0.2982537012557676  0.2365537633970282  0.5904822404798221
  0.4225365463762911  0.0942962244045039  0.6029490314035834
  0.1962445217394063  0.0876114504797253  0.6050261254676158
  0.0645103127412342  0.2425034196254177  0.5903004801233197
  0.3228673915436899  0.2289007312541364  0.6189749395182158
  0.4388693424821840  0.0841749928704111  0.6338129888114274
  0.1908796885135929  0.0767060298301929  0.6349748022004982
  0.0483180957486358  0.2449073514415947  0.6182230365034779
  0.3123619860647982  0.5743870274241093  0.5318535010773628
  0.4336688354112693  0.4320563023142530  0.5466066090384426
  0.1773458599312757  0.4082723212127569  0.5457853592562716
  0.0667266885379394  0.5702140614855439  0.5334568537902541
  0.3180432666031081  0.5702392958057979  0.5582140000414094
  0.4420634737855316  0.4173105247113681  0.5752634228884030
  0.1769522978608547  0.4135135682357720  0.5761149075883599
  0.0398547306257598  0.5770755577899226  0.5598029866888171
  0.3088812496515351  0.5792565045256538  0.5908141639863074
  0.4350291817684574  0.4181057914518175  0.6063796634507810
  0.1948663183961397  0.4261818395285838  0.6032645206156990
  0.0528437548703114  0.5829898128365479  0.5899897227132459
  0.3090075559411896  0.5757664833929681  0.6196500783284145
  0.4308338997757895  0.4224227779357406  0.6345612561246194
  0.1884144209205134  0.4150576928862702  0.6351054693459631
  0.0632287246644146  0.5828839503608756  0.6188371565756509
  0.3147261323609354  0.9052793828068582  0.5315720520070940
  0.4395614963931460  0.7449749958913638  0.5471161134243016
  0.1859293298011199  0.7456837763366346  0.5460823657572162
  0.0498877504136244  0.9067244906146273  0.5322766204123714
  0.3028474893968259  0.9163398192693158  0.5609594592962802
  0.4317944324810114  0.7400793321979150  0.5761398554885081
  0.1945535573911590  0.7515162504432723  0.5747115572529067
  0.0598493483136674  0.9173691807797183  0.5596840914938749
  0.3062258224002520  0.9106810301998143  0.5908383120945651
  0.4525585643586978  0.7501782191696816  0.6021905726751418
  0.1750437880254568  0.7474355027680445  0.6047897418516167
  0.0662298888922961  0.9222712130094484  0.5891106021328060
  0.3074478243734438  0.9181675652434951  0.6181309065208626
  0.4284318356430145  0.7484906156936273  0.6351812775526671
  0.1881890392637055  0.7403336721840906  0.6332961965919457
  0.0534304398544118  0.9084754502433465  0.6187636346262071
  0.8144408282322186  0.2377713779877818  0.5324136930378547
  0.9369647330280209  0.0803548898082653  0.5466067991962731
  0.6873177680782034  0.0742141259905821  0.5462355009516442
  0.5560062526469207  0.2394379833907830  0.5322498422737845
  0.8255113235720164  0.2487830212895333  0.5600076421653717
  0.9335326116149807  0.0867045162718460  0.5744404874701016
  0.6975497704363389  0.0888677137708993  0.5755397117168980
  0.5537002006936949  0.2485136951039567  0.5593935527998840
  0.8055857172878755  0.2472962743826218  0.5915845739966775
  0.9324810833696192  0.0844811086744155  0.6045429519008411
  0.6884298668401819  0.0719216426808489  0.6055998771567591
  0.5636518305386847  0.2355603876964188  0.5894727644704068
  0.8196322545242465  0.2466258153767490  0.6192170120999099
  0.9393808938802664  0.0767679266089840  0.6330979883739547
  0.6822727423535702  0.0767440971968820  0.6340274588850239
  0.5512772635579970  0.2550831855205483  0.6200913657946926
  0.8241193188797648  0.5843601886228924  0.5309241602175006
  0.9332755961984923  0.4155059752048960  0.5474176690006937
  0.6740351854043459  0.4080415336980580  0.5476826712951843
  0.5602891763969505  0.5756650111180084  0.5315762497708584
  0.8141048876324021  0.5663522995035647  0.5614739293158628
  0.9483223683126198  0.4064382600699188  0.5758393052151796
  0.7012972438684830  0.4215158033178097  0.5740055095459029
  0.5600114518522525  0.5665396036065632  0.5588103487421403
  0.8029998558423740  0.5784731451339905  0.5901795371933407
  0.9369423366425025  0.4140402732598746  0.6036369573665928
  0.6820784060448921  0.4129308262197873  0.6050113769048239
  0.5677848705392486  0.5851799021268296  0.5894972298447192
  0.8047970352307831  0.5812075951544510  0.6198035438242397
  0.9220207093108669  0.4138092996173566  0.6332217892754972
  0.6773215165580926  0.4107991768919278  0.6357377145436838
  0.5701614671206372  0.5791665719558587  0.6184758228822257
  0.7983566411310841  0.9049482856846619  0.5308397027065574
  0.9454597652212869  0.7444368181186969  0.5447320820418418
  0.6918845547446530  0.7626155822392369  0.5452195815969950
  0.5656012715487316  0.9046720443290084  0.5319863871489989
  0.8012132566806547  0.9202813566228532  0.5600649043522279
  0.9320616626381549  0.7490377847027712  0.5760361460312007
  0.7000105886038349  0.7439298656760508  0.5753782194157951
  0.5598064048693520  0.9192315864990631  0.5607076659351947
  0.8136182109482574  0.9120759216004681  0.5900170077848474
  0.9425303986167105  0.7413718129978191  0.6037520146076517
  0.6849734276775811  0.7565081432074880  0.6050899054893248
  0.5648574946572018  0.9197104240875610  0.5882139872092216
  0.8042147668274405  0.9208004575568759  0.6185384441765268
  0.9402045866575484  0.7420998150112122  0.6346698504537955
  0.6839722470552109  0.7453555338331909  0.6337952733719672
  0.5487304049930770  0.9042320473886758  0.6199669380513473
