na1 cl1
   1.00000000000000
     5.65414946767    0.00000000000   0.00000000000
     0.00000000000    5.65414946767   0.00000000000
     0.00000000000    0.00000000000   5.65414946767
Na Cl
4 4
direct
   0.0000000000000000    0.0000000000000000    0.0000000000000000 
   0.0000000000000000    0.5000000000000000    0.5000000000000000 
   0.5000000000000000    0.0000000000000000    0.5000000000000000 
   0.5000000000000000    0.5000000000000000    0.0000000000000000
   0.5000000000000000    0.5000000000000000    0.5000000000000000 
   0.5000000000000000    0.0000000000000000    0.0000000000000000
   0.0000000000000000    0.5000000000000000    0.0000000000000000 
   0.0000000000000000    0.0000000000000000    0.5000000000000000 
    
   
   

