Zr2
   1.00000000000000
    3.21166844482787    0.00000000000000   -0.00000000000000
   -1.60583422241393    2.78138646175096   -0.00000000000000
   -0.00000000000000   -0.00000000000000    5.20244262995229
   Zr
     2
Direct
 0.00000000000000 -0.00000000000000  0.00000000000000
 0.66666666666666  0.33333333333334  0.50000000000000
