Si2
1.0
        3.8669745922         0.0000000000         0.0000000000
        1.9334872961         3.3488982326         0.0000000000
        1.9334872961         1.1162994109         3.1573715331
   Si
    2
Direct
     0.750000000         0.750000000         0.750000000
     0.500000000         0.500000000         0.500000000
