generated by phonopy
   1.0
    11.9942622913007817   -0.0000000000011427   -0.0000000000008079
     5.9971311457984120   10.3873358440038022    0.0000000000002958
     5.9971311457984120    3.4624452812355386    9.7932741516065853
Na Cl
  27   27
Direct
  0.0025232186948218  0.0022376371820184  0.9933679318593726
  0.3371673392342018  0.0181935920546768  0.9862728542514706
  0.6666666666666665  0.0000000000000000  0.0000000000000000
  0.0000000000000000  0.3333333333333333  0.0000000000000000
  0.3333333333333334  0.3333333333333333  0.0000000000000000
  0.6666666666666666  0.3333333333333333  0.0000000000000000
  0.0000000000000000  0.6666666666666666  0.0000000000000000
  0.3333333333333334  0.6666666666666665  0.0000000000000000
  0.6666666666666667  0.6666666666666665  0.0000000000000000
  0.0000000000000000  0.0000000000000000  0.3333333333333333
  0.3333333333333333  0.0000000000000000  0.3333333333333333
  0.6666666666666667  0.0000000000000000  0.3333333333333333
  0.0000000000000000  0.3333333333333332  0.3333333333333333
  0.3333333333333334  0.3333333333333333  0.3333333333333334
  0.6666666666666667  0.3333333333333333  0.3333333333333333
  0.0000000000000001  0.6666666666666666  0.3333333333333333
  0.3333333333333333  0.6666666666666665  0.3333333333333333
  0.6666666666666664  0.6666666666666665  0.3333333333333333
  0.0000000000000000  0.0000000000000000  0.6666666666666666
  0.3333333333333334  0.0000000000000000  0.6666666666666666
  0.6666666666666666  0.0000000000000000  0.6666666666666666
  0.0000000000000001  0.3333333333333333  0.6666666666666666
  0.3333333333333334  0.3333333333333333  0.6666666666666667
  0.6666666666666667  0.3333333333333333  0.6666666666666666
  0.0000000000000001  0.6666666666666664  0.6666666666666666
  0.3333333333333333  0.6666666666666665  0.6666666666666666
  0.6666666666666667  0.6666666666666666  0.6666666666666667
  0.1666666666666667  0.1666666666666667  0.1666666666666667
  0.5000000000000000  0.1666666666666666  0.1666666666666667
  0.8333333333333333  0.1666666666666666  0.1666666666666667
  0.1666666666666666  0.4999999999999999  0.1666666666666667
  0.5000000000000000  0.4999999999999999  0.1666666666666667
  0.8333333333333331  0.4999999999999998  0.1666666666666667
  0.1666666666666666  0.8333333333333331  0.1666666666666667
  0.4999999999999999  0.8333333333333331  0.1666666666666667
  0.8333333333333333  0.8333333333333331  0.1666666666666667
  0.1666666666666666  0.1666666666666666  0.5000000000000000
  0.4999999999999999  0.1666666666666667  0.5000000000000000
  0.8333333333333331  0.1666666666666667  0.4999999999999999
  0.1666666666666667  0.4999999999999999  0.5000000000000000
  0.5000000000000002  0.4999999999999999  0.5000000000000000
  0.8333333333333334  0.5000000000000000  0.5000000000000000
  0.1666666666666667  0.8333333333333330  0.4999999999999999
  0.5000000000000000  0.8333333333333330  0.5000000000000000
  0.8333333333333333  0.8333333333333330  0.5000000000000000
  0.1666666666666666  0.1666666666666666  0.8333333333333333
  0.4999999999999999  0.1666666666666666  0.8333333333333331
  0.8333333333333333  0.1666666666666666  0.8333333333333334
  0.1666666666666666  0.5000000000000000  0.8333333333333333
  0.5000000000000000  0.4999999999999998  0.8333333333333333
  0.8333333333333333  0.5000000000000000  0.8333333333333333
  0.1666666666666665  0.8333333333333331  0.8333333333333333
  0.5000000000000001  0.8333333333333330  0.8333333333333333
  0.8333333333333336  0.8333333333333330  0.8333333333333333
