generated by phonopy
   1.0
    15.9923497217343744   -0.0000000000015236   -0.0000000000010772
     7.9961748610645493   13.8497811253384029    0.0000000000003944
     7.9961748610645493    4.6165937083140518   13.0576988688087816
Na Cl
  64   64
Direct
  0.0030105697120463  0.9929838359279985  0.0082817469671247
  0.2560850640098979  0.0248672314352338  0.9849494641369270
  0.4900125659451527  0.0022397943085516  0.0034969939296423
  0.7372382500493491  0.0158910195773152  0.0139704301038608
  0.9929077537565980  0.2412620484210102  0.0034618524883817
  0.2480263839893325  0.2486994396458327  0.0138774138105664
  0.4843981343742779  0.2280425970751651  0.0333768556808224
  0.7408322635217239  0.2586774533474646  0.9987629093465571
  0.9934949823681801  0.4947520685976285  0.0155246657314401
  0.2555203295414595  0.4920756612333955  0.0001505944211702
  0.5132135126342128  0.4745609618875589  0.0168399808690956
  0.7468418685541605  0.4923954535739754  0.9912175827832841
  0.9849387270073161  0.7583304063697663  0.9980206726427535
  0.2493186495457992  0.7524873400387361  0.9811089510359980
  0.5065676088087501  0.7725288121131930  0.9789016122817596
  0.7369867557382680  0.7603273552803023  0.9980586313676776
  0.9857115694649984  0.0133213772654610  0.2426969850802957
  0.2557580906065733  0.9927176082332926  0.2537731034198019
  0.4963317108235687  0.9897535729501895  0.2648574656305678
  0.7566923437119714  0.9905969128674558  0.2543560674523923
  0.9944939707906905  0.2498432545575404  0.2626483968501891
  0.2331381143477495  0.2785875438899694  0.2408786642718793
  0.4758148869772882  0.2499443363355453  0.2590460008497359
  0.7502771359765700  0.2541554470182924  0.2451270521470865
  0.0126464959996478  0.5112984430340290  0.2367376880822827
  0.2566125621177743  0.5085560183319529  0.2385577543227436
  0.5166841150492414  0.4779740077331165  0.2484527897506718
  0.7613574337236432  0.5015773123938012  0.2338359789155858
  0.0030104263133064  0.7467354476502169  0.2434966525751713
  0.2510676519065520  0.7520138731486011  0.2541683245249838
  0.4755554698560842  0.7555077821630255  0.2661707837063819
  0.7529932717049022  0.7604509094581557  0.2413539467302235
  0.9713480670371535  0.0131696231008432  0.5121034511690812
  0.2484015699479680  0.0105796675103870  0.4906824324051936
  0.4962576001795184  0.0056668149414435  0.4917869262835569
  0.7527530031695008  0.0105290249968985  0.4961058118680792
  0.9938167258891756  0.2398923498208924  0.5223380244828767
  0.2571498791077626  0.2413272311431060  0.5128189813075896
  0.5049869230763093  0.2448040610650241  0.5026941479682093
  0.7427020137071899  0.2753151676285445  0.4904284380925225
  0.9822328460118466  0.4975386445069115  0.5194411641823184
  0.2597138353413693  0.4927167444170717  0.5096671019163457
  0.5069236608150453  0.5082366682652778  0.4855407918644909
  0.7414496611992234  0.4974127127016565  0.5114018388398145
  0.9946641839169594  0.7537120255503913  0.5119105601015546
  0.2450433174753228  0.7386227556478540  0.5076861318330915
  0.5163670238755353  0.7503736629562079  0.4767137408863094
  0.7360071029230386  0.7661956711215232  0.4930211065046647
  0.0035762747177001  0.9917975603860779  0.7658413871858205
  0.2531701637014227  0.9875484876888684  0.7463472672000649
  0.5062213704651508  0.9975814126730401  0.7541344734709643
  0.7491333762800443  0.9926190785522810  0.7462515063732157
  0.9931559906566656  0.2579702302421150  0.7528012264297813
  0.2429651926236608  0.2586118732425682  0.7529284763570859
  0.4944804748554754  0.2504525871477728  0.7734360958103720
  0.7363509939289321  0.2469465401686798  0.7455042919927828
  0.9898379483395703  0.4834218136026965  0.7681540087577454
  0.2499158253483390  0.5016299165073780  0.7377494304206900
  0.5100610082272290  0.4997727882171211  0.7498853777710702
  0.7491365727882617  0.4965278234849294  0.7454207397755334
  0.9806008135224895  0.7600786537356744  0.7553225229901103
  0.2512361830003252  0.7621334881731872  0.7630040370456472
  0.4863232769595016  0.7581946335111905  0.7525625655578945
  0.7606310582109075  0.7689050584678179  0.7307309391832539
  0.1224571858927005  0.1268422303499357  0.1300466705503418
  0.3780908142770097  0.1343964485595643  0.1353734569821816
  0.6313061276841461  0.1174459255991045  0.1278800461810689
  0.8734330846480313  0.1140484882206616  0.1294966018350357
  0.1311633403140020  0.3518046462814317  0.1229249346394712
  0.3631694741598520  0.3831607254511419  0.1186115395485256
  0.6330702430788502  0.3780328227214667  0.1185840759541457
  0.8779321025514135  0.3689553274298047  0.1372894814733195
  0.1265488687355917  0.6409481621535035  0.1111927093070083
  0.3753379606098066  0.6210902370101968  0.1144140773207531
  0.6231405469544574  0.6190652009568987  0.1242043247743857
  0.8812532603224130  0.6216349761725857  0.1374406636190893
  0.1293020808140505  0.8618624008661103  0.1236383122306100
  0.3684264804163115  0.8688045293660170  0.1334620143214868
  0.6290259582019564  0.8527911655856034  0.1419599415206946
  0.8732858986709893  0.8836840707072926  0.1173021066138666
  0.1323120740379750  0.1330521523078988  0.3688464562147635
  0.4039795073498483  0.1254520611938099  0.3509725867326702
  0.6185704887889418  0.1430680882879026  0.3752497315128544
  0.8785217297737129  0.1149082388219215  0.3843056405709271
  0.1174508934574525  0.3751583662384161  0.3919978309190417
  0.3735030445483027  0.3799720851676208  0.3673118665403585
  0.6366868457205030  0.3644788552739010  0.3673887037798311
  0.8706659222702220  0.3612500099355762  0.3737186781356989
  0.1429010645266759  0.6214730160162326  0.3625751622400870
  0.3646738507255028  0.6274970999643216  0.3877604970663983
  0.6167283776939254  0.6486266669047792  0.3726836644636453
  0.8767766914424593  0.6246645493295628  0.3711394580806138
  0.1227445981569383  0.8724085440011510  0.3912717848234930
  0.3648234799113474  0.8879572973057828  0.3761747638513059
  0.6490563190493889  0.8703479345036388  0.3611942327798978
  0.8707251596484032  0.8824324318200362  0.3612832138671020
  0.1011832277937492  0.1223511006160719  0.6341920933407669
  0.3879167872056345  0.1222882049383955  0.6209153366747853
  0.6265501830941909  0.1353774709242501  0.6106331029096633
  0.8799912881755351  0.1197898139653411  0.6128307975669971
  0.1133352277370852  0.4031312884845882  0.6278397155172691
  0.3848860191388663  0.3595841150476757  0.6196099740374439
  0.6248315549320822  0.3784603089729826  0.6337201745051491
  0.8688503764337644  0.3621319116165918  0.6259806894533163
  0.1100046057968880  0.6462976153919281  0.5974870428144177
  0.3603009284283097  0.6328256579355074  0.6307233932126409
  0.6381766760916521  0.6176207730109629  0.6268705780681519
  0.8753691922536850  0.6327213637654613  0.6171100748535171
  0.1274056859226494  0.8748015178176836  0.6303779266207712
  0.3604354932430124  0.8840614364469667  0.6215844065961239
  0.6407462424066326  0.8622355946829783  0.6098024221856417
  0.8850025548775295  0.8680565006509550  0.6173929329862125
  0.1148972615054930  0.1354369331874162  0.8552937150176315
  0.3756426633546811  0.1351226317035106  0.8668598932171880
  0.6291293377702096  0.1304812389733148  0.8712904031466140
  0.8765934269735234  0.1369373637822227  0.8677372019115694
  0.1248360814558515  0.3767069258695198  0.8657057723521768
  0.3831153000924520  0.3808571634318615  0.8691332342945493
  0.6349902058387875  0.3739644143569042  0.8733482940606414
  0.8780297176171235  0.3792493489085100  0.8768327364566387
  0.1237441158966219  0.6467330353395706  0.8788894476777080
  0.3684361286783996  0.6386157767211684  0.8643095031747221
  0.6242284097329830  0.6324581398962335  0.8776628026562049
  0.8763698928540204  0.6309038067118289  0.8728593074786787
  0.1344697297449372  0.8710439642403018  0.8717728256716128
  0.3837617381257630  0.8699838977241150  0.8792829826921128
  0.6146362913077936  0.8882608327429595  0.8849006314804867
  0.8744149508426384  0.8764548263682442  0.8710578007897518
