generated by phonopy
   1.0
    15.9923497217343744   -0.0000000000015236   -0.0000000000010772
     7.9961748610645493   13.8497811253384029    0.0000000000003944
     7.9961748610645493    4.6165937083140518   13.0576988688087816
Na Cl
  64   64
Direct
  0.0098440222462504  0.9912217838916293  0.0031763285634313
  0.2421541922835940  0.9952591872952194  0.0086421104991207
  0.4908338941028058  0.9962835641447868  0.0178043186653831
  0.7538963641704269  0.0120938408245611  0.9855697161669587
  0.0009959909314479  0.2484178874257291  0.0035569539995303
  0.2577115465443665  0.2395771075319888  0.9960672360510487
  0.4821826923776032  0.2417888720370136  0.0200385298836987
  0.7320772765236145  0.2642660403928634  0.9890616803537163
  0.0011412617803678  0.4950276632302749  0.9918755524643467
  0.2549735696852815  0.5062218054347732  0.0046972822996122
  0.4975962307842718  0.4987378196429757  0.9904300249008005
  0.7438847714920876  0.4900283505692080  0.0023996677915070
  0.0096574117496531  0.7531862246271295  0.9970137369468945
  0.2560271640854464  0.7556151233742682  0.0066373422858411
  0.5105820836895585  0.7490813080317645  0.9842267491405229
  0.7432119796990918  0.7465070651644482  0.0032226164626865
  0.9962366306907121  0.9976382754014242  0.2484040292035640
  0.2678675308988914  0.9822882196012622  0.2559605522940291
  0.5049886172098768  0.9993266590495781  0.2364352610259427
  0.7589765620253951  0.0058580414709869  0.2548601940454342
  0.9999045631694012  0.2513710125103081  0.2430643189286942
  0.2612514413085906  0.2346200360232653  0.2686736214241567
  0.4930554523074228  0.2442916850918948  0.2427589727385375
  0.7451839539297990  0.2638965622472483  0.2524455916549198
  0.0148158514444360  0.4973599618346082  0.2495324464562627
  0.2201942238787279  0.5122537840775118  0.2492645021673919
  0.4953099701628763  0.5190351990397863  0.2263116467501654
  0.7367286919913426  0.5125919549730733  0.2475610317433075
  0.0012964310719551  0.7449620908765944  0.2486452105101361
  0.2270872781983365  0.7402213696789669  0.2722151743680919
  0.4786790883816360  0.7493528878974154  0.2768796010063623
  0.7252645411440757  0.7622633231132658  0.2481902007970873
  0.9922995835282779  0.9972775662544053  0.5174218973001026
  0.2612356895122018  0.9862717615152796  0.4924387695494943
  0.4973095052573504  0.0148758982508054  0.5035365705599489
  0.7456810044497275  0.0172028293908688  0.4739418624213972
  0.0071321441227385  0.2517777726565777  0.4957022339149933
  0.2309694282470977  0.2546269635970229  0.4944536543074485
  0.4937132057591259  0.2362474329259608  0.5157544191369446
  0.7439261209554531  0.2646546748394669  0.5142527735651907
  0.9978866970729945  0.4866848145887578  0.5211402141813535
  0.2547058996866581  0.5077272355140290  0.4779636642311725
  0.4988961494890394  0.5044583265437650  0.4886806489434760
  0.7333081081453627  0.5045145482141264  0.4938701773152609
  0.0010359813077107  0.7502178964299091  0.4992578954588964
  0.2474069914921621  0.7669700615314812  0.4975946169028093
  0.4895208150000493  0.7485441118494782  0.5107784006402692
  0.7478916821835855  0.7513481618171411  0.4797219642019621
  0.9931069579761800  0.0008706283740700  0.7626734845115737
  0.2453995282444952  0.0201695633541842  0.7478801981719648
  0.4859070068657518  0.0030739221929341  0.7496108889055063
  0.7237148478220805  0.0277672977889843  0.7569070306516007
  0.9937012345906332  0.2460933177810691  0.7597663650190661
  0.2486008380558088  0.2478812876849520  0.7486101192807152
  0.4706931343106968  0.2570455025229241  0.7569029674866465
  0.7443638848866188  0.2569342489843365  0.7686276559077373
  0.0063622792769255  0.4985367901396573  0.7559050528044007
  0.2385372364193500  0.5113146914027940  0.7454283571399671
  0.5123616978252303  0.4972401476680301  0.7380444603599869
  0.7566431841016558  0.5088882199902529  0.7480455471891125
  0.9937606254215852  0.7480060690501786  0.7577308152358091
  0.2695294340874483  0.7443828807995800  0.7421220018773983
  0.4979193493112687  0.7509447328728751  0.7581074867747667
  0.7586047729879383  0.7351476481764883  0.7592402773075936
  0.1317733665883692  0.1161743576330348  0.1366279655810243
  0.3685722362203075  0.1397374957952306  0.1260935663126087
  0.6050763134453828  0.1297741684299125  0.1390697616772739
  0.8746086968407444  0.1150140221202852  0.1244639758360329
  0.1230448350590508  0.3823867082628001  0.1066711170960289
  0.3969978555130766  0.3755388023021480  0.1133236324871199
  0.6222983219274507  0.3895970965044873  0.1123104031935244
  0.8829721616245135  0.3744358056211050  0.1207259048036522
  0.1176886777364677  0.6199262593093404  0.1168158414565995
  0.3966308097414925  0.6250651194112892  0.1176199013463385
  0.6254997464252346  0.6256037970714594  0.1407079549256572
  0.8794197330795884  0.6119150341603158  0.1387999540583922
  0.1351694423318278  0.8822781481404169  0.1076819601860224
  0.3762907236671147  0.8775520163105047  0.1140527357990451
  0.6396038315464403  0.8666564093961493  0.1053143292605042
  0.8621606285408090  0.8859075454970782  0.1228087953656937
  0.1193916198454942  0.1352962559006438  0.3634615975070609
  0.3844181302614814  0.1188700155188204  0.3722273772016149
  0.6147054947582302  0.1241171290744629  0.3787759803300236
  0.8874799996697045  0.1286550432959492  0.3777982476694059
  0.1309773080995585  0.3666454060376615  0.3834196566399263
  0.3752712133930541  0.3695395499768272  0.3735026839156623
  0.6347680157931903  0.3705328641215659  0.3855173424345890
  0.8625199513792100  0.3786093843943176  0.3815510041673265
  0.1176699228305953  0.6313096647052860  0.3743861882804209
  0.3827095684905361  0.6255747939186936  0.3630790403415768
  0.6052141301938130  0.6428487512595389  0.3628194919146409
  0.8707812513790845  0.6218961112260136  0.3707590197977370
  0.1159715728026073  0.8890998473883357  0.3703903442090792
  0.3768659322610113  0.8843462303283953  0.3735049286131667
  0.5999172584847181  0.8871777146756363  0.3903560680652721
  0.8677380381110950  0.8916205166511518  0.3662924463550700
  0.1233453316028926  0.1244408491867173  0.6215727560226630
  0.3765316529727886  0.1173077879136932  0.6126533717463334
  0.6257530745001680  0.1154308354104563  0.6310553642312093
  0.8581984100280003  0.1340618357340576  0.6237107908826195
  0.1328627279821048  0.3632459165472146  0.6216896192313549
  0.3806528673437637  0.3651070806853851  0.6221618048173768
  0.6205849626735881  0.3713180848574728  0.6368125853890124
  0.8922211374237301  0.3677214092960625  0.6230001499794366
  0.1087921246814278  0.6246869540503367  0.6388615400219070
  0.3586986621292113  0.6313530227461559  0.6212918906723861
  0.6038923034226511  0.6297400882002739  0.6319144836863775
  0.8712135031621823  0.6205386472123902  0.6245031362215931
  0.1107083117248681  0.8764864657701896  0.6313822935245195
  0.3774964115507103  0.8861636554118024  0.6145565420063097
  0.6311707354327741  0.8758773985427402  0.6095231907172424
  0.8575080394468060  0.8882091494401392  0.6326508380445399
  0.1332528943775974  0.1172880866037458  0.8775063816466490
  0.3887550145095807  0.1143241562282788  0.8834140260667248
  0.6341481017199511  0.1222579888518633  0.8737525095043958
  0.8774514482670757  0.1026883696572348  0.8881839221053167
  0.1097834579249964  0.3655429064585913  0.8967923267653412
  0.3804902486957882  0.3709043739413234  0.8888319355772379
  0.6173747158895750  0.3612495273525426  0.8908430088000313
  0.8682202772841767  0.3671535625036766  0.8818302887005116
  0.1195312067771438  0.6346383939522958  0.8789797653698730
  0.3787704529962008  0.6242661581297965  0.8635266058639782
  0.6252792271515324  0.6403307972051301  0.8594398550385529
  0.8922665724843806  0.6066502960824148  0.8786308236051135
  0.1221866830409918  0.8825972618046600  0.8898718239345857
  0.3769822559154323  0.8810391705768812  0.8725808423114368
  0.6281623765101026  0.8775442306383634  0.8769888037009560
  0.8704590937217529  0.8771561125226301  0.8573425829209853
