generated by phonopy
   1.0
    15.9923497217343744   -0.0000000000015236   -0.0000000000010772
     7.9961748610645493   13.8497811253384029    0.0000000000003944
     7.9961748610645493    4.6165937083140518   13.0576988688087816
Na Cl
  64   64
Direct
  0.0031498509925711  0.9831296400528388  0.0020956429430514
  0.2434133451181502  0.0127922675987024  0.9881994266526410
  0.4836670626705606  0.0078305834144446  0.9997827810461284
  0.7493227431967031  0.9959841858609080  0.9910486142342056
  0.0027146928415067  0.2381856495575621  0.9798267266423946
  0.2529741373916645  0.2431543823778199  0.9978936351172418
  0.4911954502528872  0.2611384172001293  0.9925554926785596
  0.7393770511301809  0.2556421046052737  0.0109409968503204
  0.9964063783835553  0.5041089855439110  0.9928736080821019
  0.2464583850648217  0.5044690637494545  0.0233708135706896
  0.5082814939028696  0.4843219253871978  0.0156168227175584
  0.7380486865355660  0.4949489334528689  0.0130365320946793
  0.9930929839439340  0.7651282369011220  0.9917636513837303
  0.2502750743792675  0.7463376553414148  0.9992372235152041
  0.5011099512358269  0.7365058916841599  0.0076265366549321
  0.7541015285875295  0.7396148287140003  0.9887515948505290
  0.0069637537470453  0.9822001413175693  0.2485308797185027
  0.2357998709294417  0.9904434068763964  0.2478026593932002
  0.4820187219407531  0.0078024158599806  0.2554680408979214
  0.7477639732068280  0.0063257400896068  0.2507625184358770
  0.0033160873083748  0.2502045618232486  0.2461056329883979
  0.2459057117925008  0.2531208854060323  0.2560179010629146
  0.4945412732137293  0.2374179089457779  0.2509433082358815
  0.7461021563544779  0.2517045074370906  0.2549929524398734
  0.9875331029740473  0.5090862122405733  0.2593064696368822
  0.2444057221176184  0.4937566283872423  0.2543750135780382
  0.5111793391617903  0.4954250382083873  0.2235923104115984
  0.7538534170269675  0.5115114364051309  0.2508019354438841
  0.9945287838361488  0.7650544487541200  0.2412801033717398
  0.2684978736523875  0.7353657495690329  0.2399541478886222
  0.5015642821044024  0.7446611819308894  0.2504799551550990
  0.7459466827636807  0.7429425864781189  0.2453454357089638
  0.0065718495891102  0.0013497165249034  0.4912806351607789
  0.2481374075024076  0.0136616083876782  0.4920590693236120
  0.4848341875064016  0.9838127311326226  0.5112528580267782
  0.7657759433429407  0.9814993784399382  0.5004745572396027
  0.0014417741795564  0.2623270365006115  0.4904336721063037
  0.2434714123112622  0.2366260891861467  0.5118103235738350
  0.4681052101693949  0.2710584285479255  0.4988203237331889
  0.7499331541289720  0.2662366496685931  0.4995487147716174
  0.9889849529782211  0.4955387203691268  0.5085480192159673
  0.2267967967197475  0.4829741306747225  0.5256139818966382
  0.4812337506974415  0.5037124077041223  0.4948531653867514
  0.7500699503815356  0.5027459077860091  0.5036390857352254
  0.0043963539721780  0.7251430571663491  0.5112798046674405
  0.2535304718418320  0.7543148727844391  0.5010901588258506
  0.5143253957508617  0.7482233361652505  0.4971619614440841
  0.7584201112517837  0.7451842793581687  0.5161340069567739
  0.0104165693180658  0.0142525996766697  0.7407029450832053
  0.2358010650747125  0.0010433600036084  0.7523576578839984
  0.5048106656745869  0.0058294744925754  0.7439368797512057
  0.7512874383397568  0.9934310316425907  0.7515071821404017
  0.0050850077160499  0.2386675775012140  0.7655660882174741
  0.2482478150487619  0.2729479157515325  0.7350926101058640
  0.4916453266625718  0.2437039224058744  0.7469622041926636
  0.7547796784284897  0.2602462989822264  0.7503821266916741
  0.0038144679665184  0.4903870320958500  0.7490245690244718
  0.2320237542772385  0.5082628986160552  0.7605362323572074
  0.5028861905578850  0.5009690264943971  0.7595950661841190
  0.7484558553101557  0.4819711769958085  0.7418350161031804
  0.0002436946493421  0.7321409204907743  0.7598641742607715
  0.2460268445332151  0.7725908876086394  0.7477288395715174
  0.5061563230122066  0.7264487305416639  0.7661310353287608
  0.7340765062460263  0.7472737811570009  0.7614231914249746
  0.1217661123459572  0.1205888923150219  0.1305744357937590
  0.3709950449447304  0.1329612195195619  0.1334063522139672
  0.6299756675048104  0.1269693332436903  0.1340311044802019
  0.8689647166062942  0.1145260816775015  0.1460877770434058
  0.1271813171027009  0.3856883606047373  0.1018241430293671
  0.3744116704506132  0.3799436909643850  0.1344335335521426
  0.6222903844448439  0.3876088660315180  0.1105807433718326
  0.8846018771514430  0.3720336164612318  0.1190463803634935
  0.1354840893410812  0.6081755828787577  0.1275431327197512
  0.3873693050026583  0.6191049173607097  0.1136152137859172
  0.6140908321362054  0.6242732667064981  0.1307008412492005
  0.8694102331804932  0.6231897200949327  0.1261132747452890
  0.1177755701352420  0.8654385195027151  0.1297553488695827
  0.3869678729044513  0.8669729544144114  0.1192177339749948
  0.6294829686706676  0.8628618488700729  0.1272243273313441
  0.8708006737169756  0.8914442740320144  0.1274906667670523
  0.1117193800050958  0.1212025911382885  0.3861819726021701
  0.3596502481602845  0.1439045834689068  0.3654659640256165
  0.6351225086572201  0.1205466022840354  0.3725552930434741
  0.8723245356730431  0.1215753608809235  0.3785266651332381
  0.1152593564027505  0.3673607281818776  0.3765349153381305
  0.3815011602938369  0.3705392079417384  0.3667385197869868
  0.6370109032616684  0.3750945264870541  0.3702863845875083
  0.8687393042062207  0.3811366282213672  0.3643631362674154
  0.1328484161855393  0.6293734043606474  0.3590541778918901
  0.3750844375284427  0.6311524630052763  0.3681504630469144
  0.6180411465691651  0.6244556268156899  0.3764198509115658
  0.8669638662381659  0.6242595309971547  0.3923740100396089
  0.1356723569336036  0.8794669207773993  0.3750316242721219
  0.3722193754056051  0.8752601572080922  0.3819823512652568
  0.6188860599825180  0.8846680605181312  0.3683090805391969
  0.8539790867745047  0.8806802589283296  0.3903302534733791
  0.1176642235030202  0.1396559289241526  0.6114526754051594
  0.3773527966125046  0.1224962526904342  0.6254836084944351
  0.6329302131386467  0.1370403610550479  0.6288372390606950
  0.8684171137178652  0.1291907265432339  0.6322225532982914
  0.1281267610694236  0.3748036744054543  0.6181610988276692
  0.3815126822944277  0.3812204804672197  0.6168812195552510
  0.6233363213983066  0.3713431070094432  0.6243537375946913
  0.8657417147577078  0.3903264930677040  0.6312976232379348
  0.1384869996480834  0.6202169710617419  0.6264400474832192
  0.3661135568875702  0.6248768787732498  0.6161496062218884
  0.6238969889826653  0.6344334432234715  0.6132400092315248
  0.8501595344518759  0.6331722852638363  0.6415290725764247
  0.1326879812060645  0.8803141765898006  0.6192999159225298
  0.3776580434110854  0.8702130173376468  0.6258119633332805
  0.6285267678790044  0.8906690563050166  0.6234004359187304
  0.8807001776905958  0.8823456934624303  0.6212387397274814
  0.1306124675096381  0.1238377003353675  0.8801779151719104
  0.3852753150685613  0.1219361221549898  0.8700426363432398
  0.6356352777290681  0.1302456508753464  0.8701195922652426
  0.8767983007362472  0.1263596652430485  0.8680585748082621
  0.1255024313217691  0.3881864752608058  0.8706052354803936
  0.3873378402288893  0.3918734724015413  0.8640932875661176
  0.6296779619560797  0.3754331289479604  0.8633975351868672
  0.8818756166690157  0.3680447764616726  0.8887241455910618
  0.1361156044800361  0.6125395102577431  0.8823969681202958
  0.3638434808003932  0.6165626834224098  0.8839119061356335
  0.6302891796413395  0.6265182737746195  0.8680554108917237
  0.8875693539804151  0.6238979023680844  0.8664851114693188
  0.1171623793269561  0.8699335986675855  0.8859110877110725
  0.3850531613038821  0.8843062155165116  0.8723099371644265
  0.6179734637005545  0.8890966051333713  0.8753399678960733
  0.8750462131403247  0.8743813792742505  0.8730903709567480
