generated by phonopy
   1.0
    15.9923497217343744   -0.0000000000015236   -0.0000000000010772
     7.9961748610645493   13.8497811253384029    0.0000000000003944
     7.9961748610645493    4.6165937083140518   13.0576988688087816
Na Cl
  64   64
Direct
  0.0023951970869324  0.0093733082577250  0.9964885601809119
  0.2415220204844811  0.9903438527887305  0.0171137312586327
  0.4983801983038527  0.0089410121283692  0.9967295630357433
  0.7455970080594850  0.9981153220898320  0.0151347297077618
  0.0088969719081856  0.2407999973104449  0.0067866038287133
  0.2606680823594580  0.2234572731081355  0.0065152105427312
  0.5071440409059988  0.2635270616511993  0.9875649281540549
  0.7505161406445690  0.2311194912278421  0.0095423665751878
  0.0011681614065560  0.4806489584911730  0.0025282546090652
  0.2527572927392271  0.5050387199608026  0.9988315764634070
  0.4900193036597901  0.4938548360864813  0.0029352321319860
  0.7507932298802497  0.4903402168353508  0.0044736050973943
  0.9871369876198424  0.7585310339614021  0.0084652872205420
  0.2426225031911483  0.7376916773726283  0.0080989992619597
  0.5137814200888070  0.7552205658890798  0.9926120916933771
  0.7412939947467125  0.7409815142905611  0.9940482975428556
  0.9972949022890910  0.0040429888838079  0.2494182700803010
  0.2469176720560539  0.9931114207319798  0.2530779216296473
  0.5015801711890072  0.0084959538513025  0.2505903632180196
  0.7502245198487858  0.0203647474662982  0.2453169131012190
  0.9978963028643326  0.2653621067625908  0.2466630249294597
  0.2467492723923315  0.2411214640772560  0.2594505553660628
  0.4917969645242425  0.2391506127198250  0.2632895096175804
  0.7341732460201775  0.2621686263948549  0.2452786385552292
  0.0037840533176789  0.4954588089708948  0.2714937078206314
  0.2612631244336034  0.4983147975252200  0.2348147412042296
  0.4978994734257868  0.5138692579647547  0.2484877821255288
  0.7583847009319413  0.4985558576249413  0.2516449992351226
  0.0022457658394613  0.7428354358546866  0.2608234623435594
  0.2463213156622470  0.7469168560895695  0.2616874780237643
  0.5095924037270914  0.7501020596160054  0.2614677395980788
  0.7578793443516886  0.7463574333069521  0.2387813282483357
  0.0223109377153892  0.9956450943297428  0.4902161327309965
  0.2480925751086455  0.0055441940037201  0.5000254370402205
  0.4872943199997224  0.0014601058370533  0.4941177952947807
  0.7367075704613439  0.9897301369531361  0.5034774957590445
  0.0023605419396040  0.2481938853863653  0.5009142966332819
  0.2623403896373431  0.2451451602954131  0.5028428674514400
  0.4858987575725361  0.2515377164583180  0.5057894640064547
  0.7500171563279100  0.2547589262107136  0.4960963703303032
  0.9901337792822479  0.5213401693631080  0.5074858031366914
  0.2329194574851301  0.5120978740277009  0.4982264531753195
  0.5024411447891065  0.4789622173803193  0.5074351667779343
  0.7381736537252274  0.5072087055307314  0.5011807991861481
  0.9851543010376393  0.7652951697150829  0.5086654356107859
  0.2474676844366904  0.7389820440208044  0.5155636860373781
  0.4993692510003573  0.7667299474778442  0.5043928955550205
  0.7569154656618234  0.7574416707151538  0.4976416398634703
  0.0154161904090624  0.9869738378036195  0.7495194518601845
  0.2572475118207669  0.0110502128181869  0.7244710838081889
  0.5050986266435508  0.9958582687774480  0.7577614358996614
  0.7480160053573575  0.9932636039261891  0.7382355152718029
  0.9909928877961334  0.2447630030819430  0.7673872180360095
  0.2678589367699217  0.2546991626338195  0.7305644618261706
  0.5092817171326021  0.2333389092563374  0.7454714089431670
  0.7549136764932816  0.2540926268459944  0.7486070821776033
  0.9979009303391924  0.5073376576517583  0.7470716363342592
  0.2793844964756205  0.4760306503806062  0.7452482321475882
  0.4936950411090162  0.4996499720105508  0.7687342659156627
  0.7552430783674173  0.4929077302223773  0.7351338945093371
  0.0016818460053664  0.7450230027373810  0.7269797198523567
  0.2482472861847231  0.7535778990175814  0.7511140978913841
  0.5063311298092178  0.7328269597803783  0.7492312698459270
  0.7638205230053264  0.7423567510959417  0.7456983265208629
  0.1242999408271626  0.1208199170890617  0.1248739733265632
  0.3805281000659356  0.1062666412887748  0.1352485778525729
  0.6172025575665699  0.1365035291023940  0.1225063889932091
  0.8782723448289134  0.1188001196906540  0.1221090989319649
  0.1347451679805435  0.3486103176144077  0.1366757261707393
  0.3688096485515093  0.3691030458665304  0.1353203454079222
  0.6304715040840964  0.3857724861764135  0.1285453014290063
  0.8702907280239754  0.3962827363208813  0.1266602137080783
  0.1253008352513391  0.6070887788394455  0.1275266147360024
  0.3773594949685169  0.6183210008148466  0.1078334378969436
  0.6155046824933704  0.6375576946439377  0.1148426194026839
  0.8748307512829621  0.6299675026701994  0.1297450206363513
  0.1303697312581933  0.8795399495933326  0.1259268769103529
  0.3662131469844133  0.8663450801564354  0.1442145878169032
  0.6069706986877025  0.8769155237489827  0.1272857339872352
  0.8755652492718740  0.8896875911543203  0.1239370636946377
  0.1246753597949493  0.1496773132874419  0.3643083973730538
  0.3632109347662971  0.1438503840349290  0.3711411764096755
  0.6048642066962008  0.1390744545712218  0.3833668737249838
  0.8771093349017127  0.1173663945563852  0.3727658451273574
  0.1339781071501814  0.3730379905595840  0.3740886690748707
  0.3806060642435222  0.3854580509502161  0.3788725414080810
  0.6180993441510557  0.3692570528901586  0.3890243872911617
  0.8666259704067349  0.3812880398475654  0.3777800321830947
  0.1350460788985669  0.6162816497464675  0.3781285357354331
  0.3790220382177506  0.6193370799332455  0.3735028723527117
  0.6206611488369560  0.6220003959858376  0.3733182378520524
  0.8794284722698986  0.6195135680048844  0.3887462182596616
  0.1268407620529122  0.8716955155663885  0.3718548655424631
  0.3529118697209856  0.8896378402583776  0.3761090986750151
  0.6319054105588818  0.8814340714954284  0.3700875833581198
  0.8782668775009097  0.8804659800994930  0.3735632529467622
  0.1246940390903958  0.1233630096956611  0.6239600391065122
  0.3714247523064953  0.1283032529711451  0.6199484862894084
  0.6046096352894731  0.1307096472703966  0.6311970089802326
  0.8893877130035913  0.1191099689400177  0.6279738941079731
  0.1160231327312681  0.3797864972548517  0.6281970540711732
  0.3787932825882137  0.3870349662450364  0.6173959913437673
  0.6201303781945324  0.3726720350124947  0.6116774281678246
  0.8687834108429509  0.3778858946752218  0.6264864059928749
  0.1398297368780776  0.6139212141949307  0.6141881731092937
  0.3681630883358650  0.6138806859765735  0.6415444944585207
  0.6411287584218477  0.6243879800539951  0.6243354641935902
  0.8768169754742661  0.6204939932884485  0.6333416953399351
  0.1259974354332224  0.8675625921980998  0.6253347575617421
  0.3685455355630276  0.8662249028787994  0.6231275086039623
  0.6264758251653346  0.8606624958466673  0.6271701931187771
  0.8616742537487881  0.8806542121151240  0.6196729048794583
  0.1404647460612889  0.1229715362207743  0.8650318358764352
  0.3794303349939027  0.1431989249643820  0.8649891056001920
  0.6235923337861895  0.1240865500863785  0.8829432267269107
  0.8711627405779373  0.1178009256197541  0.8664914655494937
  0.1200513438554803  0.3959404233166760  0.8683237971731675
  0.3873127008697935  0.3750087285158038  0.8717628300918246
  0.6327596446895237  0.3579754978050563  0.8878507882261724
  0.8928955497759297  0.3694456619726891  0.8651554676982808
  0.1369929845932568  0.6388631433076409  0.8548681148930816
  0.3595677961451573  0.6295963496522984  0.8898901866328811
  0.6326177658711427  0.6127108215308741  0.8770148286975795
  0.8724922414334817  0.6332697710953079  0.8777339097546764
  0.1301412113484317  0.8745033652024827  0.8757814639196120
  0.3806823887172509  0.8574855488261700  0.8913983083908793
  0.6286451964969275  0.8772156459647900  0.8856340929519325
  0.8895234436968866  0.8671093745289995  0.8676424818392339
