generated by phonopy
   1.0
    15.9923497217343744   -0.0000000000015236   -0.0000000000010772
     7.9961748610645493   13.8497811253384029    0.0000000000003944
     7.9961748610645493    4.6165937083140518   13.0576988688087816
Na Cl
  64   64
Direct
  0.0124658072422100  0.0007495280049726  0.9941085272160921
  0.2463160826612231  0.0006934984172666  0.0090528056952997
  0.4970593075594509  0.0096837308861771  0.0034272277155471
  0.7730825508893897  0.0075728963278117  0.9798193203959261
  0.9943211384519992  0.2561385993193045  0.9889945106053046
  0.2590378387665024  0.2371427753307790  0.0198743805301297
  0.4942317037874431  0.2451829476912629  0.9974390823034137
  0.7429202963556059  0.2523195527151533  0.9992555680259719
  0.0036223790883760  0.5052888478026425  0.9904562223579778
  0.2240223129069855  0.5231669903828791  0.0006155723435556
  0.5055055181621968  0.5036591406111759  0.0115808143804644
  0.7583742575518648  0.4999426908842199  0.9967209220344705
  0.9862714424538466  0.7608502917686614  0.0088737314427360
  0.2616134539234074  0.7380352046228714  0.0023782540106674
  0.5098962713845058  0.7511930904303927  0.9951394727305349
  0.7539420936234106  0.7389930316079589  0.0125936773558580
  0.9929315117958873  0.0164086516722212  0.2491809652847251
  0.2636995398689903  0.0047560880965738  0.2290012782203845
  0.4979715851019047  0.9980946737864625  0.2655709576248207
  0.7579839525414109  0.0115846987323465  0.2444491951536632
  0.9900871331860731  0.2451765194452881  0.2698339531514789
  0.2568703922639034  0.2485620476941846  0.2391046377244207
  0.5002514875642462  0.2524455969978296  0.2550190420557115
  0.7517309948949169  0.2397566925959661  0.2472681452219538
  0.9974299995160508  0.4885555499751502  0.2594010179619029
  0.2467838588877743  0.5170745324870167  0.2375399705869831
  0.5155545807893785  0.4941028751965026  0.2325231949111642
  0.7471253728123698  0.5091123089413139  0.2605335677061291
  0.0055448041468167  0.7495459375853220  0.2546010530191155
  0.2378463036307753  0.7776558753474652  0.2421171313288690
  0.4951722388146696  0.7415685409936745  0.2673123236524116
  0.7613307409131350  0.7420195973312039  0.2291053810598211
  0.9954021412016942  0.9927820957088764  0.5052812648337389
  0.2453259166988514  0.9937966932845975  0.5107419011969596
  0.4846925723564041  0.9975299622834485  0.5104740792281295
  0.7526383264962776  0.0060211682852016  0.5064248178180984
  0.0221400274675707  0.2366852429311029  0.4854108207977880
  0.2594763324671094  0.2354352539945337  0.5012500239111937
  0.5048028875272061  0.2631722757458189  0.4898905831221175
  0.7606388554013327  0.2324641969268249  0.5074340672527463
  0.9916160000940728  0.4969456902063053  0.5084607869843404
  0.2477160242047049  0.4799576668817731  0.5057469117540129
  0.4833178084086896  0.5012606477736794  0.5167684986082898
  0.7661181060657709  0.4935705862544802  0.4867781599668820
  0.0082079116201311  0.7544682623062732  0.4934811713518115
  0.2510401015136274  0.7446254435648996  0.5064323359000311
  0.4885358820417147  0.7579990488100091  0.4969120571140537
  0.7385301799750786  0.7377033273071497  0.5129814474233256
  0.0100592625579479  0.0086166600362092  0.7473388466315781
  0.2527200656715124  0.9889844207706233  0.7637721549576216
  0.4879310774625170  0.9958336631447448  0.7550965446020680
  0.7726387553711370  0.9975887111734590  0.7438911795587199
  0.9863789168438053  0.2542595700338569  0.7395243470871405
  0.2456721670065869  0.2574600700116045  0.7487815770247256
  0.5106657357017101  0.2561642142552767  0.7336767206517473
  0.7558175199278395  0.2517474881035542  0.7405647906276818
  0.0013241275360112  0.4841503206706487  0.7400523485544452
  0.2334359915581204  0.5058235118076564  0.7470165222775655
  0.5024605097441326  0.5153367553130443  0.7435706625456697
  0.7371851532704632  0.4969246128956681  0.7563525715384949
  0.9852854224257279  0.7637378627928526  0.7435249338237260
  0.2530262229880764  0.7297569647515736  0.7563788682781766
  0.4966938642684786  0.7485781958163575  0.7488321613172303
  0.7390761245339550  0.7597831957022961  0.7450218720354352
  0.1319104796895688  0.1290114836322850  0.1135789083428989
  0.3744916975953451  0.1322169926083943  0.1134799841700996
  0.6318115586361276  0.1179315212560052  0.1279836226520639
  0.8695958453890524  0.1305363310820468  0.1326337323540240
  0.1227801645371396  0.3903119268210701  0.1223275241468452
  0.3683228597085623  0.3728297927753002  0.1245581421159896
  0.6250034158684666  0.3862096583915625  0.1246027285542233
  0.8537998620388695  0.3883071053298875  0.1407022775641471
  0.1172561162647244  0.6253560990527021  0.1138286825786120
  0.3715343252573127  0.6358813909568596  0.1184533973569603
  0.6357749049944950  0.6262906416574745  0.1130465475749009
  0.8854235342646827  0.6109144330405049  0.1330477409610868
  0.1227856938669679  0.8704144508283322  0.1226356210043879
  0.3701232563537112  0.8639759065704528  0.1288583083483689
  0.6323149421908441  0.8778607446804177  0.1171007074923243
  0.8742061413573694  0.8825384380001199  0.1299900527060862
  0.1316494358507154  0.1214497097000216  0.3652346997001878
  0.3905731610265556  0.1151115333447222  0.3657152201664347
  0.6177625513731305  0.1307632973480883  0.3820721340301434
  0.8625354164676498  0.1357561462186070  0.3738576008894391
  0.1275454689582404  0.3680617173268045  0.3806475539335011
  0.3723391060318080  0.3694730008993455  0.3755884009264558
  0.6192832475805605  0.3710338352795060  0.3777550323924314
  0.8681097722841883  0.3565402084415010  0.3883675582177031
  0.1100506327999074  0.6440447584745761  0.3739031724140852
  0.3900490431533791  0.6249070878696671  0.3716802241965905
  0.6097625862560576  0.6215895245111163  0.3884759553106769
  0.8726915465932823  0.6036768441774831  0.3926278936579955
  0.1436316581694969  0.8686842635231733  0.3587511745405643
  0.3769992399223894  0.8915231663726112  0.3738000504173068
  0.6104683780865948  0.8835883374097314  0.3806593930866577
  0.8637984260104336  0.8864411674307009  0.3685434985105626
  0.1205725907110597  0.1038448206173379  0.6271523309697654
  0.3610618168145827  0.1261557804620806  0.6361554847151428
  0.6289002688943051  0.1309599836671577  0.6128645878532779
  0.8843251380337263  0.1250688986236047  0.6203983912271059
  0.1322743910065126  0.3838557665051808  0.6184747379597508
  0.3725440678436179  0.3760569687034342  0.6343926594022313
  0.6273555390272141  0.3614974338300348  0.6360914828773943
  0.8864964248831746  0.3869515511452584  0.6201626306595961
  0.1273961017615665  0.6254585278128925  0.6258713498184784
  0.3815111823015221  0.6376969028155474  0.6095113943582658
  0.6142141969576536  0.6384845215555123  0.6279439170686197
  0.8599068774325056  0.6318591839473360  0.6356259243984287
  0.1304051778448525  0.8594778482374748  0.6427257907704212
  0.3654898429394109  0.8694800519295873  0.6326650531306965
  0.6058022820783607  0.8744507857716077  0.6440038475812637
  0.8649539904601309  0.8786524099065268  0.6166900037373075
  0.1182925119900001  0.1377751347321502  0.8838220360706144
  0.3825163951444069  0.1018285009569180  0.8758336585571943
  0.6199641860706071  0.1187287252454348  0.8824579618123293
  0.8671294793713230  0.1228572998745130  0.8840283068818620
  0.1245794288401337  0.3676643785329662  0.8846051062698568
  0.3641710175069937  0.3942477356287318  0.8620778596073386
  0.6188312818728374  0.3702928560651056  0.8634655551130330
  0.8758709305043781  0.3867691036392589  0.8711042028068275
  0.1333455074471213  0.6085606712508482  0.8750170305610965
  0.3707157797841408  0.6147339638690192  0.8777378305576518
  0.6315782201341757  0.6237300388346311  0.8579793706230276
  0.8700504900277664  0.6313543207951078  0.8618948009311176
  0.1352358991250737  0.8652157048736928  0.8828430124521667
  0.3764178379987626  0.8929687381285013  0.8670520847424847
  0.6191944148078876  0.8671393055077203  0.8875133098816473
  0.8729573918607785  0.8856409042918140  0.8749809181298691
