generated by phonopy
   1.0
    15.9923497217343744   -0.0000000000015236   -0.0000000000010772
     7.9961748610645493   13.8497811253384029    0.0000000000003944
     7.9961748610645493    4.6165937083140518   13.0576988688087816
Na Cl
  64   64
Direct
  0.9941086594540806  0.9986497666450177  0.0131253488522270
  0.2512869147518074  0.9846024555650832  0.0140744964255971
  0.5168554796369914  0.9723219025515524  0.9973626273586397
  0.7418065302039657  0.9934356379831439  0.9986253133551121
  0.9996162835206048  0.2575590599557594  0.9751387826039313
  0.2315760729386721  0.2609091979634182  0.0051041128958400
  0.4976961633314120  0.2594723023835189  0.0000512116908771
  0.7516136690656725  0.2463811572447844  0.0009533010340484
  0.0042467155168500  0.5025692744145726  0.9820642050538758
  0.2290912746917415  0.5157440233383540  0.0059561199579251
  0.4923648020653716  0.5041834295238407  0.0100263425289994
  0.7422236889237577  0.5058243253373553  0.0000705652617158
  0.0042556683083073  0.7500926527015536  0.0031399104290665
  0.2595214692826683  0.7550786267158194  0.9983230862902517
  0.5104422791103519  0.7522366137507683  0.0058159427640582
  0.7479258876798369  0.7652648087600348  0.0056027718188684
  0.0090083558611346  0.9973330769567063  0.2483229325164904
  0.2330269583692956  0.0125005624241681  0.2441573262779587
  0.4800547960383589  0.9943855972021978  0.2541378071377573
  0.7628482887732397  0.0120381256418568  0.2465429764071404
  0.0175443514425635  0.2413939491673268  0.2352176102003647
  0.2458462550427566  0.2370166940036132  0.2545111527128741
  0.4790897517959352  0.2616670277933169  0.2547318328958618
  0.7505373056959977  0.2444850283686149  0.2519760824170547
  0.9984646523326191  0.5016177194795223  0.2515404541891357
  0.2303897732385568  0.5063871728641310  0.2598564553314748
  0.5182266033015326  0.4888352327704137  0.2613086159932683
  0.7572165303641164  0.5144415417163151  0.2337244116295913
  0.9955958255464591  0.7544414781443711  0.2465837489921914
  0.2599770058071292  0.7705322678490784  0.2239662608111548
  0.5167845240771013  0.7566996965596257  0.2282051603602790
  0.7498467895905737  0.7614640104000132  0.2371113668814291
  0.9856325638098309  0.0073373070149612  0.4953322605214351
  0.2718561252141242  0.9889129379878366  0.4844053743394680
  0.4928888739635988  0.9869873723120407  0.5167159028465750
  0.7358015556212998  0.0147340696178572  0.5119247506523777
  0.0047025283492705  0.2580438771354645  0.5042503778046784
  0.2604841446622121  0.2496180956759951  0.5162818819681416
  0.5073780816328972  0.2438850232989805  0.4948294916451497
  0.7513689231292445  0.2427581356856624  0.5098335941087457
  0.0059980584552681  0.5068400212608166  0.4990058436454810
  0.2511904623527069  0.5170629234959752  0.4909713250881699
  0.4979487300839727  0.5153326591809436  0.5037364764498273
  0.7645876331260413  0.4997611997369852  0.4723656328665163
  0.0050423834942901  0.7501355805531398  0.5030441567345815
  0.2479068753072309  0.7500188303601598  0.5045078575608428
  0.4986862227419506  0.7700728927514056  0.5004876493707522
  0.7496383571781912  0.7553434261703146  0.4977585529987064
  0.0100922467353538  0.0041101558232181  0.7361856750846305
  0.2468950254801172  0.9888432155687217  0.7500300084930747
  0.5182450526147064  0.0049460297392655  0.7314563336660562
  0.7557403576228822  0.9995728281835619  0.7500071066158708
  0.0150418419354885  0.2485708627129433  0.7371581654579287
  0.2529928699511997  0.2396330501578273  0.7632514250777617
  0.4842257148851160  0.2438376997405565  0.7541622919717622
  0.7578219170450902  0.2503738330961509  0.7608292960464798
  0.0152061017015818  0.4952546278839996  0.7616881764248197
  0.2545181261227030  0.5084909933095884  0.7465879956015409
  0.5154259211082272  0.5112118469790280  0.7424700663614242
  0.7518407418295540  0.5141878270518138  0.7355064960362697
  0.0078234670647104  0.7507623695162357  0.7575159199703728
  0.2135681803908526  0.7632450532238603  0.7767820348356111
  0.4952565879347298  0.7544586335735377  0.7477662038852506
  0.7596110147720494  0.7392437846899356  0.7506747972093960
  0.1211887359972625  0.1220412238035982  0.1208458092522252
  0.3774654357022831  0.1260964417922590  0.1294655863235297
  0.6268076855465872  0.1208322959772521  0.1306726604243260
  0.8625168802449675  0.1295073889628698  0.1265889645329215
  0.1287586289480760  0.3708981121405857  0.1255206126594630
  0.3963363040156908  0.3736705258883075  0.1244027455991573
  0.6238944691015555  0.3811201854767171  0.1273551909420418
  0.8714299753176028  0.3748606146597450  0.1361644897522611
  0.1170493972442934  0.6271676960948004  0.1155359724547845
  0.3728576045776463  0.6130454277466066  0.1239828987601235
  0.6227605065650881  0.6351173146898890  0.1084811478154649
  0.8672425155346571  0.6252820802779315  0.1254290270826632
  0.1349831884289028  0.8647309646826161  0.1255621230518792
  0.3787014293242316  0.8590763236266051  0.1314465726685727
  0.6180819858864275  0.8862465995078921  0.1123279031611068
  0.8795062098775417  0.8738106845998417  0.1292837572668105
  0.1239485523593557  0.1303587339399815  0.3693681058842461
  0.3765180450411312  0.1308859770560857  0.3856434620248930
  0.6110281417351336  0.1357483412711525  0.3681912681555437
  0.8755064394364725  0.1375636683525132  0.3604579252100388
  0.1215263577707811  0.3746166045406818  0.3792075656489012
  0.3666150635903395  0.3867803164991848  0.3749297462308938
  0.6244567671143251  0.3685086878604230  0.3794472507282156
  0.8784662910525390  0.3688225456907870  0.3820471399453716
  0.1111723550990069  0.6377701015623898  0.3802195208170410
  0.3730246751435752  0.6296095320672483  0.3684262458748145
  0.6292480365522042  0.6241994641578036  0.3670302209094946
  0.8785717190610425  0.6064667328381496  0.3802271330461767
  0.1301117232051710  0.8618527345328691  0.3670261697269115
  0.3711007352327459  0.8619032355227363  0.3777203131871019
  0.6171502624657356  0.8856224766172376  0.3781425516859919
  0.8734069703753715  0.8536573733316538  0.3850952571388699
  0.1276095415367037  0.1208102250890760  0.6362278970361739
  0.3817358482814934  0.1235772201587221  0.6150838484960941
  0.6289765017844640  0.1168414470325727  0.6256638252090161
  0.8745882789564940  0.1217510166166765  0.6278093738714878
  0.1379689867166380  0.3554452022374575  0.6125001320562840
  0.3624427760692447  0.3716596368382490  0.6264956405494558
  0.6476506887440967  0.3613319537076353  0.6239370183328072
  0.8759756153171580  0.3781925254062518  0.6209740628457505
  0.1071328298847485  0.6216915944983925  0.6337598857944809
  0.3744332088696140  0.6235594817116676  0.6007652186785885
  0.6319402636013278  0.6233458703299108  0.6168233829326860
  0.8846419922675557  0.6360630993062604  0.6203550084822326
  0.1261795380986269  0.8643740367125088  0.6244702667234667
  0.3730860984786628  0.8816052554966997  0.6175659675531896
  0.6267322606021382  0.8820510054987722  0.6123482994389429
  0.8835943838683408  0.8745696462473462  0.6272688532514716
  0.1099449915831468  0.1273348419709881  0.8714909269844821
  0.3795193716991374  0.1320385382380380  0.8683313706022435
  0.6016442204787726  0.1275812824682949  0.8806900981976948
  0.8753259787087084  0.1255197105208454  0.8842833710490882
  0.1256912821219374  0.3863107472734947  0.8635328983205313
  0.3471648221447168  0.3848581440848987  0.8918407146466688
  0.6296901123861283  0.3820050121555396  0.8637515549092917
  0.8738658030630025  0.3744874604583588  0.8636072415150629
  0.1029457573899697  0.6288718293947757  0.8854022614609375
  0.3776570108375837  0.6126754054893160  0.8692403994856651
  0.6297434948404041  0.6199688504207173  0.8732063005390306
  0.8895513227013716  0.6291028309172764  0.8695062962868840
  0.1166033912903009  0.8854705426752658  0.8674858682558544
  0.3733324246923591  0.8606321318706569  0.8841948532802277
  0.6219960309130035  0.8636310149152789  0.8609834982501484
  0.8776937411864298  0.8701066686945704  0.8802179591146865
