generated by phonopy
   1.0
    15.9923497217343744   -0.0000000000015236   -0.0000000000010772
     7.9961748610645493   13.8497811253384029    0.0000000000003944
     7.9961748610645493    4.6165937083140518   13.0576988688087816
Na Cl
  64   64
Direct
  0.9938080995726460  0.0197590113206705  0.9958064425987053
  0.2582156938483351  0.9955989967806349  0.9961280651281292
  0.4927458709967922  0.0069091184281257  0.0019503863650450
  0.7567300638053650  0.9911638475107410  0.0035463535953005
  0.0175183548298633  0.2163764788779614  0.9948080939834522
  0.2506157588630347  0.2648521719716990  0.9857180750378796
  0.5056870969203202  0.2539924411029831  0.0040257083480222
  0.7537419763242946  0.2462927583732498  0.9782111812164220
  0.9854317284606104  0.5102570885172759  0.9860902931289395
  0.2320843772573671  0.4915046446965146  0.0041023846813666
  0.4859922870629459  0.5126407083662926  0.9997436629733154
  0.7588409467191544  0.4977580443404089  0.0090389592097017
  0.0028539425494060  0.7498144428882932  0.0103171090265688
  0.2668037769428565  0.7513304449295778  0.9998350832397572
  0.5079261806545841  0.7412901000991591  0.0155489465798441
  0.7757719173751730  0.7396106391974914  0.9881711824923790
  0.0113340020920302  0.0023464989201525  0.2452855649362713
  0.2570346993931105  0.9884679975346825  0.2471355229130136
  0.4999903355871747  0.9884128202330481  0.2589114285525611
  0.7653498195782089  0.9748652077867243  0.2588823598910533
  0.9924992052686022  0.2513535004292047  0.2574671979380301
  0.2448898119592945  0.2425617973566602  0.2359780126065767
  0.5146846185787396  0.2493920053823057  0.2490331555344877
  0.7420496062913092  0.2509423050049711  0.2581270979220051
  0.9770113430684978  0.5248236640342783  0.2460193881611992
  0.2406251029372091  0.5038382622465795  0.2487417383513765
  0.4718310501860728  0.5199867783362752  0.2493006302998476
  0.7463580782030934  0.5048117887849557  0.2717592052094815
  0.0052659139485943  0.7352213033586843  0.2573641883473038
  0.2616595992212563  0.7486594418903324  0.2455493822255285
  0.5101963361765165  0.7584063306382264  0.2286778820147564
  0.7696795112222050  0.7569277316027833  0.2284583900835603
  0.0075375722639927  0.9961342008298131  0.5003410196344268
  0.2698208612445628  0.0104539538084028  0.4763716156641857
  0.5044689545532530  0.9938227357347559  0.4933268926190165
  0.7491385569160932  0.0035582389974077  0.4949086483292961
  0.0072885258432800  0.2456743065990290  0.4923816387456406
  0.2428384152835818  0.2522457837485313  0.5045223859004117
  0.5030675120941390  0.2627595415692889  0.4982410221693634
  0.7473546734172634  0.2436239412744885  0.4851952008841960
  0.9921745416700020  0.4964201289641096  0.5278915795686575
  0.2387210436298147  0.5067870686987724  0.5109415263570017
  0.4887311861127396  0.5125927665024435  0.5156713276703881
  0.7410299746395979  0.4927343694998888  0.5124962218793919
  0.0049375835033746  0.7486430871936136  0.4951361912726420
  0.2637678309012105  0.7335678135994925  0.4957413107092525
  0.4961175464074054  0.7380479049256985  0.5049415754564673
  0.7698698213544518  0.7464779669058612  0.5039717434577711
  0.0061954441490505  0.0033805531988234  0.7323749033697552
  0.2381128516559846  0.0128948001393587  0.7592749776834806
  0.5103042981227228  0.9901093427737542  0.7533308055759373
  0.7533956278769154  0.9866272605757762  0.7563572395278931
  0.9790047846171493  0.2564947718252425  0.7451498060990658
  0.2516726271154133  0.2569070280483612  0.7279120555885927
  0.5005342131963810  0.2326225960037225  0.7657589108143110
  0.7370624604757610  0.2542729919157080  0.7511248098457820
  0.9987622338132964  0.4951264327911667  0.7490140137681029
  0.2447703760597515  0.4985949711571929  0.7472742736341413
  0.4997063842117208  0.5021003614594538  0.7479548420669508
  0.7343967675573824  0.5111356327956821  0.7354857733814700
  0.0085810880452560  0.7579163359560395  0.7266798022468623
  0.2476406378622089  0.7419381158412632  0.7685650862486192
  0.4986949553216384  0.7473348690825793  0.7586265003226252
  0.7546361345411491  0.7631688669641059  0.7347687619936728
  0.1202430879112468  0.1118987112305619  0.1345575562275191
  0.3731376142384695  0.1275769507476070  0.1220765108769089
  0.6104999298739734  0.1290958231891965  0.1320016137825567
  0.8921620381735004  0.1307298390149004  0.1124119897350481
  0.1204171917987006  0.3950272640002399  0.1404811936893728
  0.3804107201075707  0.3586233641534934  0.1184507258588131
  0.6265577734577948  0.3694583027682385  0.1250763800371271
  0.8712598486453208  0.3690624832105837  0.1238877803452731
  0.1208736398780379  0.6243643772686771  0.1262772204698768
  0.3803674351008071  0.6238421923941428  0.1296100803092076
  0.6214546080326511  0.6088320906007600  0.1326354675154666
  0.8821759325089750  0.6211344559925837  0.1324828862852334
  0.1168548726366684  0.8816527512124495  0.1282300050208937
  0.3642953418807743  0.8787153224883665  0.1261263930165535
  0.6324302090847740  0.8797441071673981  0.1144645253851111
  0.8980081889155371  0.8618747809636546  0.1292968537130446
  0.1251546800550461  0.1208374527227870  0.3798787724264083
  0.3753739835120621  0.1263991253595334  0.3736099322701389
  0.6357868128593097  0.1168910939073982  0.3823526567416684
  0.8647385106297772  0.1305587515398447  0.3790404352525955
  0.1119863476131262  0.3689007381677800  0.3782910052747031
  0.3436842638943689  0.3988752187701048  0.3618227127046921
  0.6224758242658839  0.3796505814055469  0.3769274406951281
  0.8830051809256413  0.3775541847314591  0.3627762857670958
  0.1313931524034685  0.6373597618057542  0.3535647296322528
  0.3843592399199549  0.6315119866664451  0.3872541836906462
  0.6371745323159005  0.6187172513339722  0.3684741154470477
  0.8758527203022515  0.6210593018763106  0.3784582018593443
  0.1150424785160628  0.8707911673898658  0.3894779131872626
  0.3796673248913325  0.8640409810075260  0.3916927038350997
  0.6294326578396271  0.8654239167127653  0.3884942335617886
  0.8635722511008086  0.8904062991375590  0.3735259137389480
  0.1264129193445899  0.1244372943692443  0.6199716613361430
  0.3654164583070155  0.1148902248262544  0.6422015084028465
  0.6335088354611751  0.1137410289480487  0.6209520717713922
  0.8646432807472342  0.1303801068439185  0.6261038576001963
  0.1222266349963667  0.3739305945180593  0.6158763864802090
  0.3791438144499668  0.3756734797107987  0.6240897283022039
  0.6231964419793515  0.3669352643225564  0.6244766035076604
  0.8765174131991692  0.3794224831118447  0.6212185796735318
  0.1202049412201141  0.6269385313603332  0.6157508876908404
  0.3599668648787478  0.6360244278937102  0.6254747772373577
  0.6344120926253716  0.6282971917806379  0.6298588029492176
  0.8674601606661478  0.6308465648675009  0.6434122026061637
  0.1453053584778094  0.8623344730036798  0.6142770412198602
  0.3955590003571534  0.8670510617628449  0.6176238138757718
  0.6121329633355320  0.8920921039609456  0.6242113124937515
  0.8922678139743742  0.8699738866913355  0.6297730436933436
  0.1104774030190575  0.1247471865668898  0.8682384741326566
  0.3801088128660434  0.1331340990852580  0.8568720774345576
  0.6536037199564630  0.1127994022262898  0.8746366344917849
  0.8707683801355431  0.1239175629798459  0.8834390680809803
  0.1332239831512076  0.3740531584783643  0.8731057129563692
  0.3657279705023171  0.3819548486339997  0.8660620704368620
  0.6236543268046241  0.3798180333167955  0.8786765380623262
  0.8742236709466193  0.3702490638856664  0.8765381604209689
  0.1216096001736174  0.6259537461464182  0.8768632980645181
  0.3874893784844343  0.6006283742103361  0.8604469653346798
  0.6106228379914695  0.6386426733172987  0.8902070153580106
  0.8769900181085208  0.6183298943298785  0.8860968566855026
  0.1186299096962752  0.8705200270856519  0.8642690506901535
  0.3668470250024768  0.8695122070438004  0.8866795810706716
  0.6341134407506053  0.8785435767804146  0.8689900803373642
  0.8722098261277016  0.8697361806360708  0.8821593662617710
