generated by phonopy
   1.0
    15.9923497217343744   -0.0000000000015236   -0.0000000000010772
     7.9961748610645493   13.8497811253384029    0.0000000000003944
     7.9961748610645493    4.6165937083140518   13.0576988688087816
Na Cl
  64   64
Direct
  0.9845431007111006  0.0227456216846874  0.9961078542917475
  0.2405033214191732  0.0181444546124304  0.9938437367871290
  0.4988031040950880  0.0182621619742676  0.9951404381672844
  0.7342875043027091  0.0181417087433120  0.0006824292664975
  0.9874539761233533  0.2564202853237679  0.9992220688114529
  0.2647696378602437  0.2610600290417431  0.9930084633914721
  0.4921433781437953  0.2711137287903601  0.9871198252941913
  0.7605549452280451  0.2521578016789388  0.9960137912527574
  0.0275622156947042  0.4636060498516798  0.0143897560307148
  0.2648970358738861  0.5144287163076799  0.9840006463640565
  0.4974011021798639  0.4969081796168553  0.0002352160293718
  0.7437525719694202  0.5038124750705115  0.0053654563960713
  0.0016742848468995  0.7417184843025497  0.9988348084940195
  0.2560503483609734  0.7325465354296892  0.0027257026864117
  0.5037662647407402  0.7560676701419349  0.9947026833538047
  0.7322413949024339  0.7521338512387509  0.0015144899602504
  0.0140880222504914  0.0014470001070027  0.2332209899993785
  0.2599773269485623  0.0054493656432653  0.2426925008205904
  0.4890820267538170  0.0178427935363864  0.2494167283129000
  0.7572456419163698  0.0150945419087142  0.2416004748845692
  0.9909152879677071  0.2486507612090249  0.2556947576282562
  0.2430994461546399  0.2498343811553937  0.2562478222216130
  0.4910872376798854  0.2507408585998255  0.2471861099158145
  0.7445298276445205  0.2486862127984571  0.2628975959320943
  0.9716994117225602  0.5077501297252515  0.2462077373395218
  0.2542372203706574  0.5006985896560402  0.2384250843696135
  0.4935418268276233  0.4995540611404751  0.2371944001478964
  0.7581791856858788  0.4870682365272663  0.2508347677823972
  0.9944625186840507  0.7876199015397001  0.2408772366579610
  0.2433154393767190  0.7512718981772774  0.2555861865056072
  0.5035441020465415  0.7623970510022140  0.2414134443376480
  0.7611546810867573  0.7433511354216898  0.2468638660148686
  0.0152292771171756  0.9945230000754719  0.5092558207251654
  0.2502499560105549  0.0014577487850269  0.4925276804542411
  0.5042129394180668  0.0043684748924416  0.4936908742564725
  0.7625991806923015  0.9910490743933710  0.5026239224298920
  0.9754789545063799  0.2733068394344154  0.5070115711328743
  0.2390729694273075  0.2611060233041051  0.5041825030934357
  0.5050623624974478  0.2366737490117225  0.5226615827358088
  0.7477761137346768  0.2457559791258151  0.5079827685512823
  0.9920227747561605  0.5076740397881806  0.5082952379757156
  0.2463146717129961  0.4978366972050370  0.5171247059693106
  0.4847659550816872  0.5079097991077548  0.5024765135898133
  0.7524934906495417  0.4918907807500983  0.5070293649538447
  0.0152283662065233  0.7267165910014115  0.5069382624163792
  0.2365047103528045  0.7478789187183734  0.5204802799620314
  0.5175177084135518  0.7222229789960226  0.5004594425484138
  0.7444279927559183  0.7544277901798153  0.5187489665731390
  0.9971298186311683  0.9960767168363707  0.7508907483499547
  0.2466140089934922  0.0069642280544904  0.7461881929512092
  0.5125325005162690  0.9961232171615558  0.7434516559190403
  0.7394543363516437  0.9931299357096108  0.7637283451268088
  0.0091335916768334  0.2495171772440398  0.7587408537951770
  0.2510606114228280  0.2508689128744613  0.7696221390671620
  0.5017826998350330  0.2589299151512590  0.7418814323849833
  0.7483422162502531  0.2640000645067443  0.7491839660127829
  0.9926017460370440  0.4885241727727057  0.7578225237388964
  0.2555062833200487  0.4946534235771644  0.7601630762176745
  0.4961076724065611  0.5056093530928121  0.7597270639832929
  0.7543605829809277  0.4962763052267388  0.7555310088282314
  0.9949177359259637  0.7556118752432848  0.7466940062056200
  0.2632377802764889  0.7260694330054889  0.7642607652360757
  0.4995579971424534  0.7387417777499131  0.7448981375075541
  0.7601070232342255  0.7560857879750548  0.7419979757784865
  0.1100792455545071  0.1184350695791875  0.1343486076416420
  0.3753397592946873  0.1136360665208721  0.1450444754220835
  0.6182889323790528  0.1302158745630229  0.1207873312875153
  0.8951805131461947  0.1177051223863056  0.1110021610783111
  0.1060836073338485  0.3983333307899908  0.1286425206815828
  0.3701521594662095  0.3780367095750170  0.1493061597349981
  0.6330971531619448  0.3667950375520502  0.1147962978386725
  0.8621370561655334  0.3805517153163583  0.1226870750173211
  0.1268602322216997  0.6231947933655103  0.1224476967722952
  0.3620660083919297  0.6194731359656455  0.1325794082779351
  0.6199889516154516  0.6255657027914894  0.1205928382910990
  0.8781068887345546  0.6276899503425366  0.1184369090438462
  0.1313257542991968  0.8613733540359945  0.1250822355918273
  0.3709780289873910  0.8719108455079889  0.1256878401628991
  0.6203503323900447  0.8625464426037585  0.1359094078967737
  0.8690735381331816  0.8715035501211569  0.1337262113377874
  0.1105753734499411  0.1366305530252487  0.3695009230493619
  0.3832917749361179  0.1273387925317666  0.3632559868673994
  0.6253368675605658  0.1161360520704569  0.3672071754235644
  0.8780887255649830  0.1267034994725101  0.3708494710077509
  0.1225482045090608  0.3795866632823728  0.3679817021922667
  0.3811950842507495  0.3603820520436076  0.3723100812381738
  0.6321452271917829  0.3750366478543951  0.3692364167737733
  0.8684750008536678  0.3709852927698190  0.3768825889686265
  0.1309141517738076  0.6274993647865433  0.3794746738107716
  0.3860684381303664  0.6054066862432850  0.3792573489769634
  0.6204907135168216  0.6290359460809228  0.3795093870249151
  0.8684565448578290  0.6190615166893934  0.3727753507137586
  0.1309668216951546  0.8709070333219012  0.3634913115048397
  0.3679995404186202  0.8819106826690686  0.3737929217624320
  0.6348283774384783  0.8780385317068069  0.3622336053247023
  0.8585042597340909  0.8960265323606516  0.3708326303558669
  0.1408339771988445  0.1157708157264200  0.6175240212663683
  0.3580778345793154  0.1272307459030035  0.6458176008239641
  0.6295559681031158  0.1228267655321859  0.6460860424525539
  0.8673651475419288  0.1174968198887255  0.6393994457747439
  0.1286270847063887  0.3606608860656710  0.6380888322912450
  0.3732315830456164  0.3754841019648552  0.6385804963625402
  0.6042523713098447  0.3941091190986964  0.6218689944696624
  0.8674534334988724  0.3802096412188214  0.6336214694385629
  0.1296330415593493  0.6129316875917383  0.6402420563755932
  0.3920652604411056  0.6075425018730307  0.6260716023412343
  0.6208592831707438  0.6198160315074084  0.6233557706322163
  0.8905956149171255  0.6130843464852098  0.6277551875926676
  0.1218241739083465  0.8807257452245580  0.6159084975227795
  0.3887236079220022  0.8685546210072093  0.6116030963850770
  0.6151455692552634  0.8651280025601112  0.6306653722897986
  0.8733536460359341  0.8903908223764361  0.6203781150582741
  0.1357489570023156  0.1161522862198354  0.8668304023197487
  0.3804536370897352  0.0988561853759172  0.8838322747213601
  0.6080316009283570  0.1249140453219592  0.8844537426767531
  0.8829072863692450  0.1021027338313455  0.8841981906558528
  0.1400717205953625  0.3659689711003389  0.8701084943073208
  0.3774797769520318  0.3875460539620209  0.8660631094796071
  0.6251619927780381  0.3824361102051697  0.8648843385950477
  0.8717555222136535  0.3789185796864481  0.8612259541101134
  0.1297511350862913  0.6194010796291654  0.8791156485955002
  0.3793597293153338  0.6282441550109334  0.8641875135082971
  0.6022796938234442  0.6210894860386067  0.8954190580343573
  0.8630582026123486  0.6208529231688864  0.8773244608677305
  0.1274141718896651  0.8881573145614872  0.8646575454057749
  0.3837467274957181  0.8725148520731207  0.8716667685645219
  0.6285382925669161  0.8698440358334341  0.8730750430792080
  0.8742038784533177  0.8885633249339713  0.8743599635776148
