generated by phonopy
   1.0
    15.9923497217343744   -0.0000000000015236   -0.0000000000010772
     7.9961748610645493   13.8497811253384029    0.0000000000003944
     7.9961748610645493    4.6165937083140518   13.0576988688087816
Na Cl
  64   64
Direct
  0.0072934662671694  0.0001713683532137  0.9803408365475597
  0.2365705265710797  0.9877411392923146  0.0075833613191942
  0.5096371556169078  0.9929955041951709  0.9876932467947378
  0.7467334261461259  0.0150734977350600  0.9885669659131128
  0.0133924476531124  0.2439832260753842  0.9965802823781388
  0.2588865019937894  0.2521341503611134  0.0037301175196452
  0.5096053373640658  0.2421842928606009  0.9917620600107429
  0.7643140390715100  0.2463220165904350  0.9864339235651018
  0.9984375484992860  0.5039959686121622  0.0091319093146612
  0.2527496867176803  0.5075388732029235  0.0008682085828559
  0.5007151815815222  0.4808302612357550  0.9968581992092584
  0.7724630419376086  0.5034870588550464  0.0041803171666109
  0.0084191905631970  0.7431672806292121  0.9887289721340403
  0.2622307019965919  0.7534260508853949  0.0122541357611624
  0.5017783653002503  0.7540650130098391  0.9961433777424106
  0.7625459687963022  0.7461540621670739  0.9917398834949274
  0.9906991962228172  0.0073973625835692  0.2401298459654992
  0.2544830248098232  0.9927415772393374  0.2497012252488042
  0.4859296180973566  0.9977097708388422  0.2658399481601181
  0.7513854808192661  0.9962548435981151  0.2562795937636723
  0.0087221217030016  0.2402933853326558  0.2448937770656812
  0.2584433464557365  0.2367648272333789  0.2413463653129026
  0.5082611434079118  0.2554893890106058  0.2386705654929675
  0.7471592975505322  0.2534825430512492  0.2520547174401203
  0.0000275957915301  0.4936763484687658  0.2523638967051786
  0.2413831542518008  0.5064915853008461  0.2420754406659618
  0.5018678160537418  0.4938315776549259  0.2494715753338971
  0.7487856537049496  0.5185974128807729  0.2733746342352780
  0.9922712424061190  0.7777657742711938  0.2524830459790819
  0.2786117574260993  0.7576774719254706  0.2161771353638320
  0.5149995693710196  0.7490364138085914  0.2540395722365898
  0.7626866761781582  0.7693168550212007  0.2354274146698839
  0.9856203083356238  0.0237759936969468  0.4920044610941521
  0.2492675695021513  0.0085423310186442  0.4888589397772093
  0.4886419972641539  0.9958880540739572  0.5045272915401666
  0.7688193598345486  0.9977692447812765  0.4870843768759993
  0.0030648664494172  0.2549282131079780  0.4952718337096688
  0.2696796182602194  0.2497465031075684  0.4786201886100554
  0.4884802586330386  0.2417856734000801  0.5195513266779579
  0.7550258852408447  0.2526409805605261  0.4939855709717361
  0.9963672697145332  0.4893323577176553  0.5113819378333154
  0.2537063029454353  0.4977686773486613  0.4874928969865420
  0.5111545207583849  0.4842863516002515  0.5006750614634716
  0.7561580957048856  0.5023278668725046  0.5042756717340218
  0.0073369252727670  0.7465360725592930  0.4891368862789637
  0.2329903591270207  0.7420024459561373  0.5028583834807325
  0.4902142207841883  0.7629133011258491  0.5026924789951011
  0.7334244798478685  0.7554609495368108  0.5048925338942305
  0.9951699385148147  0.9940393243357550  0.7542342831980394
  0.2396353608150272  0.9842095902500584  0.7612912004728697
  0.5002773771953934  0.0233248918745790  0.7453718565517714
  0.7233311300102571  0.0096073544926286  0.7621674085008823
  0.9959049283066641  0.2623487976524334  0.7551548337017867
  0.2602404446515810  0.2471083509874733  0.7439490350107243
  0.5058782011429799  0.2475968992930179  0.7545253934755392
  0.7613354242288121  0.2437793892705675  0.7392780488802032
  0.9884039092983496  0.5002021226246798  0.7519560742824509
  0.2496897360282433  0.5178753376522408  0.7487116999736980
  0.5033289511165224  0.4999452991226336  0.7487709281204229
  0.7553007807239209  0.4993073695235107  0.7484693926095460
  0.9906267084191666  0.7483746349079416  0.7687815369399321
  0.2453285920488598  0.7601023981577371  0.7513529584694534
  0.5059694121783903  0.7331453794717511  0.7525787035293068
  0.7554399598761256  0.7529491442804253  0.7549784047002756
  0.1183738453695041  0.1312266247805851  0.1272351907771465
  0.3606444983988779  0.1351666614866631  0.1307751159730396
  0.6251360431528131  0.1122444850605262  0.1301788047203113
  0.8714893946732868  0.1212885835792013  0.1195454038929522
  0.1220997435209236  0.3752681848405717  0.1179345635446676
  0.3722942561232581  0.3764908292724960  0.1271735287826331
  0.6105356282367063  0.3879081807092451  0.1299696301811512
  0.8747887208561236  0.3626496662233449  0.1309377823655517
  0.1344171878017064  0.6371950997276795  0.1068427685550389
  0.3725665026159738  0.6317276365948420  0.1324518519442862
  0.6283229215056210  0.6260899458185706  0.1388727201446609
  0.8864122044052501  0.6228933146535740  0.1214922102393619
  0.1204689285130099  0.8840634979734541  0.1169627145135139
  0.3857113320045697  0.8710713200730712  0.1228836192815410
  0.6319239852414307  0.8734956757061245  0.1250875909271136
  0.8786053341031381  0.8781808619353627  0.1341977963787862
  0.1156075838508435  0.1322439717484982  0.3895380498544747
  0.3611622893968724  0.1270093011825517  0.3934728265564638
  0.6291069790536603  0.1168312961107168  0.3582193261615731
  0.8724189628581085  0.1145118787057862  0.3909488177008659
  0.1405066394684573  0.3749342599603455  0.3664794221254402
  0.3802417585004608  0.3605961403691003  0.3830401361496113
  0.6156848447499480  0.3821265880786292  0.3902068453224605
  0.8836710970733594  0.3755925002288267  0.3677955954290936
  0.1349651843392804  0.6278111841981099  0.3650762813434994
  0.3657885713014695  0.6179220851671969  0.3897179018199760
  0.6240387800417752  0.6282410511301865  0.3734947888169842
  0.8778521913229596  0.6365021499224730  0.3727393667976971
  0.1309614731950283  0.8656412513994354  0.3807446065740643
  0.3657121369548286  0.8823509025660137  0.3799431440058920
  0.6349044831587225  0.8815643384900272  0.3706613874386532
  0.8768189876843181  0.8724696667043254  0.3719841319316340
  0.1106131050907849  0.1339808797843706  0.6309182197183844
  0.3702626254475775  0.1270838184105479  0.6371273394521879
  0.6448045661141997  0.1151390318489081  0.6296821428591227
  0.8628590841643321  0.1329144351858976  0.6306999488478536
  0.1251783721399337  0.3706610779285220  0.6300496193547918
  0.3758583517562291  0.3741936191043183  0.6377288213833091
  0.6259763864287424  0.3755736491536733  0.6240702700015189
  0.8784342288673627  0.3774500919282400  0.6099338859134211
  0.1200477668551779  0.6235756922613612  0.6307703692423490
  0.3756084347275419  0.6319863455599045  0.6366640542001842
  0.6375786403298268  0.6231359546658720  0.6203008715593682
  0.8948399889723160  0.6138152401207787  0.6111404798634945
  0.1290516742811092  0.8750866168773745  0.6166264994532503
  0.3575658750328378  0.8941705304832928  0.6301944046262009
  0.6252864192961111  0.8686559209682831  0.6188219659601624
  0.8750880681209641  0.8660149407444019  0.6393916138688093
  0.1467010028683902  0.1324538605596533  0.8555617138690832
  0.3735726343046992  0.1118713229516086  0.8817464400622260
  0.6309020400772130  0.1263600585647238  0.8743705302457659
  0.8682327149493879  0.1331418861976412  0.8872318999040790
  0.1256167185168415  0.3723824481877600  0.8774392894983523
  0.3833372819555161  0.3798858711733340  0.8699122818406618
  0.6203602756347666  0.3822951080942849  0.8702073066446545
  0.8808245059985795  0.3884205756072471  0.8677327735695937
  0.1372676244011692  0.6073416146039887  0.8747812434333333
  0.3856600984688409  0.6205559879448618  0.8623028714174552
  0.6206156969413195  0.6329407368853617  0.8602390769033423
  0.8573712949900673  0.6106263661642337  0.8867685393343141
  0.1178155871071686  0.8692032491613314  0.8903236004045181
  0.3766809401300395  0.8648957277247868  0.8783084906922651
  0.6483384300883647  0.8636581358814981  0.8730091339047579
  0.8830058433830132  0.8695725857443899  0.8804639457799800
