generated by phonopy
   1.0
    15.9923497217343744   -0.0000000000015236   -0.0000000000010772
     7.9961748610645493   13.8497811253384029    0.0000000000003944
     7.9961748610645493    4.6165937083140518   13.0576988688087816
Na Cl
  64   64
Direct
  0.0155962508275386  0.9981204496855244  0.9742649824619045
  0.2528051285154206  0.0058229682062763  0.9998295076035854
  0.4984118541476913  0.0240789586174159  0.9794851651622966
  0.7766093462312833  0.9811863803993961  0.0053634005635608
  0.0069288878175848  0.2326324954350246  0.9959735336243648
  0.2547644617048040  0.2414482653734526  0.0051952274156804
  0.5087527529730825  0.2534915113288971  0.9929937461869117
  0.7452047428500357  0.2475362518613984  0.0019981841856982
  0.9998658174439926  0.5038431363331607  0.9936346124598125
  0.2394849518549245  0.4933001506748007  0.0036724817444405
  0.5086908430970671  0.5049866955028220  0.9798791044390758
  0.7545846171373295  0.4877313820595526  0.9959850538182182
  0.0087446855465789  0.7327096143318744  0.0142643074531849
  0.2484013090352900  0.7462779703054565  0.0070085578518596
  0.5023565161855359  0.7361415820515893  0.0082940882386881
  0.7665220056388619  0.7379042971508213  0.9922568543338218
  0.0126937877595796  0.0001336946067968  0.2492860807058385
  0.2372149696319998  0.0077597397370457  0.2482105642660506
  0.4820663731857235  0.9993085810281294  0.2680437846384832
  0.7620558856945052  0.0050694795913090  0.2342656347874337
  0.0079815180028926  0.2458497960123044  0.2477190465508599
  0.2473661266491319  0.2629147204860411  0.2326200581161449
  0.5106139838544502  0.2436849651702691  0.2463640094253282
  0.7526377973952021  0.2588817047642197  0.2414313574117364
  0.0168298360876991  0.4980450634144848  0.2473227177895948
  0.2267697876777663  0.5062888567102926  0.2631455226003130
  0.5003927627924153  0.5134895803110688  0.2379058380214030
  0.7582668679004796  0.5010161424448872  0.2341057865344698
  0.0133922807177295  0.7431733564429954  0.2317597273003250
  0.2448321044530951  0.7637522041247625  0.2563622424530878
  0.5002906701712995  0.7533107386221730  0.2664172713489036
  0.7228278845245448  0.7726715533067735  0.2338636456396819
  0.0068307712032132  0.0000080217285803  0.4748812506388651
  0.2616525932546036  0.9999085259631832  0.4862283026548350
  0.5066922191101886  0.9909163952188369  0.4955883600225783
  0.7778918878369903  0.0053873937745949  0.4852172963763622
  0.9913573866888912  0.2448471593776885  0.5097176549690955
  0.2535752817923014  0.2497987023939897  0.5033761910885375
  0.4981062123120500  0.2400070530650761  0.5078132590837408
  0.7636742920199244  0.2412180446319915  0.4936016672159845
  0.9820732240380661  0.5191643466391145  0.4818301471242269
  0.2339476195693510  0.5217626654726333  0.4883596138355269
  0.5220703356075331  0.5012087052349786  0.4879716680266201
  0.7574342092905029  0.4988960302179500  0.4937903501889275
  0.0053546227077976  0.7519580668215464  0.4990145392093374
  0.2679562036461642  0.7573563066088338  0.4983208629898387
  0.5019769188474927  0.7529334094520488  0.4954956966386377
  0.7607070332008707  0.7504966385439571  0.4835128292044476
  0.9771925503869663  0.9995731777458778  0.7712876156037689
  0.2249242673980900  0.0077841273904155  0.7508855776715621
  0.5007259419473277  0.9828876019801462  0.7459503745541248
  0.7642041356861407  0.9876371112030879  0.7343184622083233
  0.9981596439297111  0.2416772524763957  0.7568837951224257
  0.2591796326007189  0.2486184534150644  0.7480443406784690
  0.4967063491478888  0.2460837983540379  0.7472707705023850
  0.7430700362287476  0.2749285482346296  0.7444927904429729
  0.9947994987588109  0.5093164114325412  0.7411784249653737
  0.2499262955733647  0.5125253958697562  0.7259924523626430
  0.5046771311803979  0.4887107469841114  0.7631953521460931
  0.7695080398983314  0.5050044413405028  0.7489869421684318
  0.9923594376902539  0.7384100405105891  0.7488631341058777
  0.2332656518476708  0.7592518278427101  0.7515580835377944
  0.5094773355379312  0.7587939924803163  0.7356190778296775
  0.7410273617186633  0.7649710900447361  0.7431470800241615
  0.1263677464667105  0.1185107287704057  0.1292968722571882
  0.3790122858580710  0.1414805164717895  0.1148286833345975
  0.6392686467495456  0.1108868142603000  0.1338356098146281
  0.8785962688469156  0.1448826232717246  0.1029118547412307
  0.1344911102859266  0.3856265532892885  0.1146288493389460
  0.3830460962774994  0.3785162740579237  0.1103324754913338
  0.6485114389859941  0.3591681631866344  0.1290879387919254
  0.8877588874676985  0.3711593870290719  0.1172275266248620
  0.1196028514814182  0.6380910152165989  0.1289631104447420
  0.3810677218643028  0.6222649913309350  0.1124090386482415
  0.6260385836990480  0.6196959610537113  0.1268282263777746
  0.8701028790848265  0.6232460600308438  0.1237586658754488
  0.1211762524100965  0.8762232241926005  0.1258773059840828
  0.3823713551655543  0.8816423749687619  0.1229119530242939
  0.6149297285076746  0.8763125195963253  0.1235737592037909
  0.8793426030896516  0.8599535694115612  0.1438448278236702
  0.1262723671655432  0.1244471208021957  0.3667928803807770
  0.3729124637360258  0.1094464815359614  0.3747368394231312
  0.6100558625302539  0.1566053475243741  0.3621942814653626
  0.8677615913925140  0.1267632662882439  0.3682365900474613
  0.1162071597093377  0.3807899402364502  0.3803240886865914
  0.3693262630417874  0.3814114379784782  0.3676399210353677
  0.6302602159808620  0.3765845995722112  0.3838749998622988
  0.8785231848233216  0.3736901433581702  0.3703075494488555
  0.1198904294870944  0.6244808375822866  0.3915243629340259
  0.3697200725497548  0.6287626395413397  0.3874742062697015
  0.6262573818679924  0.6178987421941491  0.3877354116873711
  0.8633334144028636  0.6239688673750444  0.3938425226437195
  0.1150977526383544  0.8802020009842066  0.3763101351871890
  0.3705866196100319  0.8675985738761955  0.3845732103393750
  0.6315814616049529  0.8785787136003845  0.3653273028869777
  0.8662833979696256  0.8700067586182216  0.3874937854639509
  0.1229359411678567  0.1204919458319963  0.6201646939097676
  0.3671970897808556  0.1166674888081706  0.6226107881110342
  0.6102160834456172  0.1393518632581622  0.6170338070619626
  0.8609312019247513  0.1433771780219706  0.6227789799457041
  0.1278110551238132  0.3811710158146401  0.6237174612118038
  0.3771672563982156  0.3687400128000223  0.6227557069002949
  0.6298513953628250  0.3614378245093833  0.6445225461639436
  0.8719391826577227  0.3662762981327291  0.6347242920614640
  0.1219061681282359  0.6126159116188690  0.6274232550888635
  0.3731758746352590  0.6302603887395999  0.6196114718338200
  0.6300872585328861  0.6392135524536663  0.6070696256502902
  0.8685120704280113  0.6226518037925215  0.6344040420841126
  0.1284840791508035  0.8721056790551189  0.6245829286846415
  0.3813959113527591  0.8712373708906138  0.6217279214509145
  0.6245905175011330  0.8733699326826780  0.6304208246502067
  0.8911262132924245  0.8653944242940733  0.6276738184492994
  0.1246722387387255  0.1136527629449988  0.8736326487058872
  0.3568194706120224  0.1279414359200325  0.8923625788576532
  0.6402473379946994  0.1203377169513341  0.8705972463771641
  0.8561546215450673  0.1272857307088038  0.8940441848068355
  0.1231230747897920  0.3717705350565444  0.8716581974604112
  0.3617629812110836  0.3868803315660291  0.8756015765775855
  0.6433756201331700  0.3646687702559631  0.8843629665162525
  0.8669891776394302  0.3709813682727949  0.8781471215340643
  0.1342320651959070  0.6283037359600150  0.8531602504336891
  0.3819865680398922  0.6124014254932687  0.8746027035909516
  0.6157753019146641  0.6255286588170674  0.8827952712624798
  0.8742569680035364  0.6272716821506148  0.8845342054393431
  0.1386103176962985  0.8627688775317879  0.8625541634201660
  0.3827016176185542  0.8643094379344086  0.8699562405952280
  0.6292596051606574  0.8901549971749881  0.8660175428049680
  0.8811366165810576  0.8754840410923267  0.8816745909126349
