generated by phonopy
   1.0
    15.9923497217343744   -0.0000000000015236   -0.0000000000010772
     7.9961748610645493   13.8497811253384029    0.0000000000003944
     7.9961748610645493    4.6165937083140518   13.0576988688087816
Na Cl
  64   64
Direct
  0.9715546693446919  0.9978422808528730  0.9999787223403178
  0.2573919359930142  0.0042931788838105  0.9969613782649478
  0.4959291573561062  0.0058858239598559  0.0102850225193283
  0.7282111322530469  0.9986781633304904  0.9936302143590570
  0.0062806560148247  0.2409729360224566  0.9912802528660847
  0.2535154778722096  0.2482624971407460  0.9959861487786935
  0.4973873295581243  0.2545675906836926  0.0125905379746493
  0.7364843132036342  0.2594540879449349  0.0036220961595881
  0.0067301958814377  0.5156225159556618  0.9951799383386527
  0.2484812618979811  0.4933440741933250  0.0051076140305366
  0.5114829000424810  0.5001501274889952  0.9832165188632199
  0.7628367331400010  0.5149193114446499  0.9805974624171419
  0.9935103891122377  0.7363704861120490  0.0121830871480720
  0.2535534225784078  0.7531652164208186  0.9989272987754920
  0.5017557745361320  0.7421792360847130  0.9968764597721061
  0.7452560834883836  0.7530136447643310  0.0188653416428580
  0.0136111133910014  0.9810428472553826  0.2480306090239264
  0.2579835057343025  0.0087454379172266  0.2359119692010404
  0.5093721174833826  0.9855451761948366  0.2495112070617140
  0.7532310485211395  0.0053732826754457  0.2287798828039616
  0.0005187571571977  0.2648207504058692  0.2379057159153364
  0.2571392914724028  0.2371993197217063  0.2570593134637411
  0.4980929980754754  0.2578887389262500  0.2429815977744620
  0.7560454873570503  0.2464691273420328  0.2569839626088655
  0.9816810896460199  0.4939017493874885  0.2683272190661646
  0.2815951822770975  0.4888066166193553  0.2354587879407557
  0.5113352656202668  0.4869883638020127  0.2506577493623488
  0.7214068785119345  0.5137749747680938  0.2509492395808581
  0.9774369969681262  0.7566899904583944  0.2530394465215893
  0.2379568395929519  0.7596989736354045  0.2523526155881548
  0.4821040085053095  0.7506006492479707  0.2618658612929299
  0.7526755748035053  0.7367222086182053  0.2461248093467457
  0.0041261571649827  0.9895948941961946  0.5170447573074984
  0.2572860732591662  0.0056377590771535  0.5030496386693240
  0.5117512769314958  0.0034664529193165  0.4759889900280083
  0.7585141930812628  0.0020315146676695  0.4775269946781536
  0.9971142910763829  0.2280752398759862  0.5074042163135848
  0.2466641044616874  0.2745181533154896  0.4805417318389293
  0.4958209100282349  0.2369533946939285  0.5052252677904202
  0.7509505747464436  0.2475931738371632  0.5076848696900107
  0.9889716216846375  0.5003708016541686  0.5092534767451555
  0.2309461047364939  0.5093610319596240  0.4942793747150618
  0.4919203719013933  0.5105417057781010  0.5061290107364526
  0.7395126804636114  0.5170537197148974  0.5015737109746107
  0.9915814468717923  0.7654381006624672  0.4969854922160382
  0.2484983470379095  0.7521745144430549  0.5064073429564360
  0.5026763475497935  0.7422802671781576  0.4935694660203356
  0.7123353262525386  0.7650009965421054  0.5109061749389506
  0.0099527705487326  0.9972071508932429  0.7508756873654652
  0.2523829727903384  0.9989297796993759  0.7406194336630749
  0.5035066764134531  0.0015951356477992  0.7399575759879108
  0.7439666607123669  0.0045710816141131  0.7318115082608094
  0.9895332869756801  0.2753629652787037  0.7459167854004980
  0.2442172788392226  0.2352939784566044  0.7602264173132508
  0.5019400360860493  0.2640099927499624  0.7454955645472614
  0.7419887992795716  0.2596666450982125  0.7402943479431321
  0.9910948944630440  0.5001520985856831  0.7592847980924172
  0.2477380864192690  0.4833006907152595  0.7575214409904679
  0.5015698934802071  0.4983201864202336  0.7544040839513154
  0.7662110615192725  0.5029584851233531  0.7347362053210191
  0.9777577085893345  0.7601422526670367  0.7596455131072961
  0.2469185823938839  0.7349866274439861  0.7636364312116478
  0.4948057503155222  0.7475698466237701  0.7605736607195678
  0.7606268770522546  0.7471037116421378  0.7311104596735696
  0.1240399213523133  0.1257620797541139  0.1127104146794653
  0.3833699364871863  0.1321298974532218  0.1106312507774573
  0.6325309246081279  0.1118829000466688  0.1236439355288013
  0.8725137349084029  0.1274679910262929  0.1092802156211986
  0.1320505949274087  0.3723106625265722  0.1203127272596100
  0.3724771098482727  0.3774769526477346  0.1102657450965241
  0.6414434385075609  0.3644213807607296  0.1346885355251587
  0.8673541641934911  0.3877026756878102  0.1337754874121406
  0.1137601188664348  0.6349132068902708  0.1175848352228351
  0.3935264673439946  0.6258648928957460  0.1133416185966122
  0.6053512493673325  0.6290166007311717  0.1219064490791204
  0.8843286066913268  0.6265365673343579  0.1057868706088271
  0.1311538038826343  0.8733337521525482  0.1328267421040860
  0.3640380996243937  0.8725350868966446  0.1386151219912576
  0.6289653929095814  0.8629832714156093  0.1296072984020690
  0.8823423307612887  0.8704669246430824  0.1230878694941508
  0.1302445360755219  0.1370023844633016  0.3676974683692619
  0.3859885192702565  0.1150199931984134  0.3970851964543207
  0.6253396790578276  0.1134882806314993  0.3681285718256473
  0.8800208056937929  0.1302960504410504  0.3717506939470407
  0.1159382526939105  0.3559996389864263  0.3941430701795769
  0.3918345055150055  0.3620504453856932  0.3746862182206462
  0.6265585456486831  0.3844966643485593  0.3784236504072084
  0.8641048951537714  0.3786544892533068  0.3762162356219721
  0.1290011928137453  0.6183899153006280  0.3782253507256368
  0.3839278629961999  0.6246627589665483  0.3709220191289859
  0.6326389668004878  0.6136793752152150  0.3738714995126194
  0.8740972457121206  0.6341736229450520  0.3702275231869247
  0.1152222086640360  0.8905603213258657  0.3609289544972564
  0.3743310640093538  0.8768338573589056  0.3693831648716751
  0.6255266879921262  0.8718946744597226  0.3798880536286482
  0.8792099233622154  0.8739370327593536  0.3773276991035004
  0.1287908783531914  0.1104464973646499  0.6482030603763873
  0.3697333082231761  0.1220823364975058  0.6347929122473591
  0.6287471595534266  0.1273805005027984  0.6310734758703030
  0.8744774797746230  0.1151053391328639  0.6160897611257052
  0.1378221720610453  0.3634622531415883  0.6259799608823654
  0.3716197932396824  0.3925981260419994  0.6163695529125950
  0.6432150294986558  0.3615543311822764  0.6339475930600733
  0.8746121908921817  0.3865992802558945  0.6122037201501951
  0.1350385934295640  0.6258821535728095  0.6160005021616090
  0.3728895733592301  0.6194749062812364  0.6281666821841686
  0.6229173540714398  0.6347747686218844  0.6241401849967207
  0.8668081373825092  0.6174765924748614  0.6411956499791992
  0.1199301677879324  0.8802007841842385  0.6220107870012654
  0.3725054319120376  0.8745859328497904  0.6262485085691999
  0.6359556891678797  0.8771680364689247  0.6167315380588051
  0.8717697376776031  0.8610039049994260  0.6246231311442011
  0.1213382034474024  0.1173962444295206  0.8782196183022805
  0.3907605438266090  0.1282245435447447  0.8686457115589145
  0.6192002595425172  0.1217956525564128  0.8752433902709338
  0.8706608182619962  0.1164173152246306  0.8855281642273878
  0.1134429928036631  0.3893493890094282  0.8789367081460786
  0.3703571569081320  0.3841014395691996  0.8783109214018142
  0.6342635996654742  0.3645374336943922  0.8790050752757126
  0.8826312013646258  0.3669888727976746  0.8752953453324195
  0.1255831825682575  0.6138315962996892  0.8882660184644877
  0.3712806063844222  0.6207045641164642  0.8851495201619245
  0.6269673086542957  0.6422929773102948  0.8731234825272988
  0.8873102833827602  0.6177392949450617  0.8670453495087939
  0.1096529121143792  0.8741959487203149  0.8885869086428029
  0.3649095686401085  0.8855967442721275  0.8879306478760841
  0.6321522776991322  0.8787668592859548  0.8683380362240665
  0.8882948434206175  0.8640448272273655  0.8833953210149711
