generated by phonopy
   1.0
    15.9923497217343744   -0.0000000000015236   -0.0000000000010772
     7.9961748610645493   13.8497811253384029    0.0000000000003944
     7.9961748610645493    4.6165937083140518   13.0576988688087816
Na Cl
  64   64
Direct
  0.9796678058013183  0.9997948646843355  0.0067512472753602
  0.2587009577914621  0.0158406451230717  0.9894174951494399
  0.5008999451426960  0.9893908027280461  0.0109756612790985
  0.7716236162044778  0.9788390862287200  0.9825449046851000
  0.9987983618746921  0.2426144137356659  0.9913411438520816
  0.2743623801986320  0.2494365082200931  0.9838389722259859
  0.4922690309280071  0.2640094882937400  0.0075758466607960
  0.7423061507978286  0.2544108011792594  0.0002530245073457
  0.9977043605543728  0.4910925461579675  0.9960487606614052
  0.2428238992745259  0.4895519302357696  0.9926863658466264
  0.4915790927567619  0.5070499291034498  0.9911489631679766
  0.7469271054256216  0.4985670278856027  0.9953310694166978
  0.0099889314216240  0.7511439064900427  0.9967784442624438
  0.2483589734724935  0.7567506181733006  0.0037406825473507
  0.5109927172778563  0.7504643130324193  0.0064277563519451
  0.7434302605662688  0.7578493960969921  0.0013719429672173
  0.0063476049411380  0.9895413528558021  0.2508154566936993
  0.2368802072834873  0.9868693907540808  0.2745852302972709
  0.5174398205938083  0.9705291589499864  0.2421165926927663
  0.7431736157899450  0.0065916532907731  0.2653238845578877
  0.0002013701092897  0.2518079612353404  0.2504801143494566
  0.2690526893232102  0.2307720810906100  0.2608817297608940
  0.5009212737794874  0.2477902301565100  0.2492071995449001
  0.7486892085236123  0.2620107355874073  0.2340162200228489
  0.9913222871123945  0.5253151969559340  0.2515845986704510
  0.2467720763826243  0.5070561917838426  0.2574714916209798
  0.4915295626489038  0.5046697164428797  0.2431583565764715
  0.7537776108251741  0.5001560852757529  0.2609799498267459
  0.0099941817623979  0.7411324485914380  0.2573763778421676
  0.2465713356634272  0.7492009779460439  0.2485083652712935
  0.4786096651096277  0.7676601444799838  0.2464772548138507
  0.7554076411173585  0.7477951048146164  0.2462791074795700
  0.9944895474217554  0.9982869146767270  0.5092669415066498
  0.2507540496242996  0.9965335453563303  0.5103645192745777
  0.5072736871076085  0.9995209598931566  0.5080231251768840
  0.7712521265478665  0.9810758009880973  0.5129355423893555
  0.9835398347217648  0.2380316972393627  0.5069802708974110
  0.2341965810041101  0.2511840967993014  0.5110980069931190
  0.5097381590380580  0.2669789880891593  0.4930666029968469
  0.7557738086887210  0.2583096565485418  0.5021189051472694
  0.0080688278572883  0.5051028115706871  0.4920138695377629
  0.2571320639861330  0.4866396858926425  0.4918471063155420
  0.4778706239374788  0.5049601323864346  0.5228332227830332
  0.7452675704605398  0.5012101234802739  0.4946634211180898
  0.9999913327371843  0.7377371343312773  0.5067272853862644
  0.2609369680505217  0.7637870708575030  0.4820845648140091
  0.5088658111178065  0.7441152973634892  0.5030779581473506
  0.7471374776340467  0.7664619716216123  0.4917461554102717
  0.0058644430319509  0.0019578556103895  0.7537931550618225
  0.2605967220958239  0.9991340956565131  0.7459350913251815
  0.5223759473177981  0.9886721659997133  0.7456466733723347
  0.7604511663611968  0.9823864880655255  0.7599177480121992
  0.0033468601337005  0.2703295075898287  0.7484140951084585
  0.2245516684259008  0.2506562785547534  0.7517252289120626
  0.5107590670274321  0.2337913820011117  0.7446438693121188
  0.7569291199738024  0.2431194091820104  0.7485871168371835
  0.9930396793132290  0.4994857399900954  0.7516890835192882
  0.2368261259831899  0.4966279526532027  0.7665334273124086
  0.5025616712692744  0.4956415365385545  0.7567919679368066
  0.7593183378044879  0.5036961873577769  0.7586532843453939
  0.9957635017948434  0.7350867857695126  0.7626389775653886
  0.2502755453787983  0.7454259637542994  0.7516162197196370
  0.5000653986005434  0.7326555759544371  0.7508121827247880
  0.7554221500279608  0.7526110291549761  0.7539445565990998
  0.1249180207577798  0.1337040807806189  0.1043178707216271
  0.3878063951897581  0.1191791793528933  0.1300149263965614
  0.6294951080658647  0.1262808265516723  0.1208372427128289
  0.8693346574157457  0.1377081525829675  0.1175136993096143
  0.1258588340575437  0.3635836445386848  0.1388570015562370
  0.3837956504815613  0.3685647726293676  0.1132390426535969
  0.6224435614942826  0.3910784631767304  0.1351785072291928
  0.8695195120272318  0.3577820926387387  0.1350709431962993
  0.1329133256387264  0.6346972137240285  0.1290530427039736
  0.3520319640732718  0.6348459063851241  0.1100660229363329
  0.6183037707607766  0.6285725516823270  0.1272780668389022
  0.8762908937896461  0.6147965793635090  0.1376575707816799
  0.1129365965278489  0.8825679473722706  0.1133295643313617
  0.3822154248362379  0.8698437824557699  0.1166461819241266
  0.6214094679407606  0.8842030141448313  0.1242847255567333
  0.8872352637800522  0.8689399378451684  0.1145302458372202
  0.1092118640569700  0.1358031167965935  0.3674428692321480
  0.3696680091284985  0.1325793374528134  0.3673925113208686
  0.6355167787764664  0.1119827812979702  0.3755966244348216
  0.8756611149800890  0.1182449055754312  0.3657587264438457
  0.1258276330915647  0.3679491456973794  0.3899102485455077
  0.3659602008465626  0.3658437042867084  0.3907931016541368
  0.6236191538567003  0.3831085035032781  0.3795299790148105
  0.8719259699584468  0.3653382956632595  0.3832833885519542
  0.1201615883834642  0.6163703969557635  0.3756660418050070
  0.3779076204711114  0.6213550847526714  0.3929833820767538
  0.6119717139642797  0.6234393203359608  0.3793468076472415
  0.8818615820431777  0.6220996308468419  0.3659393435693249
  0.1231410106681240  0.8710975565887162  0.3625779935031811
  0.3841515151164422  0.8560231264378407  0.3751513931567511
  0.6212696980525966  0.8765470789175411  0.3864450221637988
  0.8787149282991091  0.8493535935302221  0.3800904644046600
  0.1247812542976001  0.1264736852984326  0.6178166627197054
  0.3812490905259993  0.1148938896837945  0.6318621344191536
  0.6210713856447925  0.1146324804172059  0.6372193846028423
  0.8740248468856564  0.1318372976085252  0.6254942106817560
  0.1291900130646073  0.3748141809730714  0.6244767363122729
  0.3590283337224359  0.3705804787688660  0.6424222316653125
  0.6347426904497664  0.3784127111888207  0.6322868352952895
  0.8896055213998193  0.3649526417565437  0.6170758081253424
  0.1089726776909627  0.6243100470367535  0.6329534334246636
  0.3789660100034995  0.6307259869126932  0.6279366169517235
  0.6240618892077333  0.6450063677768710  0.6304596241381634
  0.8860784965049975  0.6067934054577326  0.6246618015720383
  0.1244003509425420  0.8774994259801477  0.6181606440681592
  0.3786149281982916  0.8773816915568391  0.6108203942158017
  0.6237361750976919  0.8645430352669108  0.6387444791040959
  0.8853239977113748  0.8724017160337241  0.6193527433434195
  0.1320686701746899  0.1179892322782392  0.8771714181735670
  0.3807345250600938  0.1253870577641343  0.8768945864602600
  0.6275034026924107  0.1217073231858317  0.8845709536594998
  0.8933414511248960  0.1337499538378893  0.8562083168447584
  0.1332712659403666  0.3867893686979350  0.8601006611180135
  0.3898120135544061  0.3691682639668801  0.8634130118455157
  0.6334952316350126  0.3803353052578648  0.8561111158510298
  0.8783425961009678  0.3862774994072864  0.8773576610222398
  0.1169371308707322  0.6449843172043848  0.8811296600668438
  0.3748099269261907  0.6196931318259979  0.8804552277491773
  0.6352814701772749  0.6221753190854019  0.8720947469044269
  0.8885469141733268  0.6247349579940639  0.8636955835424831
  0.1483994445098723  0.8519607107452154  0.8843247644350797
  0.3693157687625892  0.8617660256457731  0.8905953160733406
  0.6220320113664134  0.8747901466934720  0.8759256631960208
  0.8681522161840249  0.8759464400730708  0.8821507606370206
