generated by phonopy
   1.0
    15.9923497217343744   -0.0000000000015236   -0.0000000000010772
     7.9961748610645493   13.8497811253384029    0.0000000000003944
     7.9961748610645493    4.6165937083140518   13.0576988688087816
Na Cl
  64   64
Direct
  0.9898053344114750  0.9954628511111039  0.0031257044723356
  0.2441873893815428  0.9900543443679849  0.0117810671885128
  0.4924771699521855  0.0042358968802831  0.9979696364436856
  0.7749709459125552  0.9723998243244879  0.0119123859866661
  0.9842039199825393  0.2468540712321505  0.9974475221720303
  0.2431101812405479  0.2390441079650708  0.0105006447152746
  0.4947123390450169  0.2557385009365689  0.0128669279093478
  0.7657115836418900  0.2529415359795917  0.9967122057154364
  0.0049425595941434  0.4829918118058882  0.0093994054771176
  0.2528266463199286  0.5010345301833270  0.9917607134204749
  0.4990240568773062  0.5043891841560788  0.9995103645869119
  0.7375985630736286  0.4852583684457906  0.0113060266599471
  0.9993167488263387  0.7358889820544330  0.0023845116612852
  0.2621635517722569  0.7304202097561625  0.0016088037731543
  0.5123953698357675  0.7475005068689632  0.9922798416567425
  0.7481533536533123  0.7528905924567982  0.9987589966744775
  0.0117731621668685  0.0003673393192150  0.2582755509401288
  0.2543326408540746  0.9990484425859472  0.2622414926479668
  0.4939147352824648  0.0013704527027270  0.2547034132794508
  0.7550457783724041  0.0047700306246935  0.2396407244392174
  0.9908193526711024  0.2453570655029232  0.2467753151518385
  0.2515470474425696  0.2520752371443670  0.2390130159508756
  0.5030657958244592  0.2456582228023043  0.2523809500441463
  0.7504172383806111  0.2358853271984447  0.2628674117689025
  0.9838162409502573  0.5101770815805478  0.2372620138146251
  0.2554716326663521  0.5112493410855545  0.2432988590061272
  0.4881180719742125  0.5051848021722594  0.2512011596595176
  0.7587115124397928  0.4992279684278547  0.2467163744393733
  0.9979731597663318  0.7363554421218608  0.2682854496619628
  0.2603607599939940  0.7437827456830871  0.2457743598002970
  0.5158787317265719  0.7434387961959793  0.2516304730352632
  0.7519950231140947  0.7572225921093626  0.2544657928767823
  0.9985969402211529  0.0088668867365868  0.4921358164100060
  0.2531061318059185  0.0022098891540699  0.5061280675526776
  0.4983582490036610  0.9954697499492529  0.5102883307949091
  0.7619542253135849  0.0088832324999354  0.5071546201016690
  0.0030409280609540  0.2491699667746618  0.4967797369320409
  0.2705277114898006  0.2485307460650182  0.4933486948283862
  0.4876550261464174  0.2578359088531293  0.5104322367885217
  0.7671835835199902  0.2558912609309754  0.4878248200756252
  0.9840694595414202  0.4995103679618765  0.5064492390314175
  0.2537639623837944  0.5089932426170329  0.4883986603885649
  0.4832188968024733  0.4925176425827686  0.5058309492572881
  0.7706566526561910  0.5031128368188433  0.4985598234210006
  0.0177478663502285  0.7516781108672637  0.4968830666232529
  0.2427439313936013  0.7561204244691827  0.4932797573949504
  0.5202546913852061  0.7406192702752078  0.4960192526462935
  0.7512402220335589  0.7537895844422771  0.4967032942549296
  0.9994213599639261  0.0241382155408313  0.7314376765437842
  0.2419461128152101  0.9997039507010563  0.7550500244730491
  0.4909685236610294  0.9914368299228444  0.7571430942019232
  0.7434949580623998  0.9800614913524948  0.7609696815053691
  0.9898055432572298  0.2500581449488225  0.7458320397961533
  0.2563365738787144  0.2389256504235806  0.7534502937797652
  0.5042959986522897  0.2317454413796690  0.7689191881358743
  0.7511387712521491  0.2488885043277536  0.7449461314682085
  0.0106387850734439  0.5150360737695056  0.7270988223379558
  0.2561463013103341  0.5009062511838167  0.7539707697474769
  0.4974761542817401  0.4953823581501016  0.7538711343353693
  0.7482657198162191  0.4983415760950605  0.7521566093894561
  0.0044844344641813  0.7370309442568999  0.7617665046135986
  0.2601146710229126  0.7646579663811046  0.7268311726870336
  0.4913567275797429  0.7615934225418114  0.7582160835739243
  0.7363371430963256  0.7525537597514194  0.7577260804874875
  0.1327211688645212  0.1274954511876625  0.1131427717200957
  0.3821866620325359  0.1220518253126606  0.1101571471561883
  0.6354500322185120  0.1213904235913776  0.1219544384750649
  0.8811978779929515  0.1240401055428103  0.1167115777110390
  0.1222225357598999  0.3845494138125337  0.1210106575774393
  0.3655603679454097  0.3959692803180184  0.1175696392940230
  0.6250938793689709  0.3787189131976721  0.1224679566793361
  0.8763767778250644  0.3683394065020991  0.1302411661144099
  0.1315787218936719  0.6182994269605595  0.1203147805244730
  0.3785958129442837  0.5995522629403568  0.1413136694866950
  0.6379659465307680  0.6353049526005641  0.1060788809906254
  0.8781517007172925  0.6304647971393729  0.1065579761253082
  0.1220810080961470  0.8762751548198427  0.1291904277201002
  0.3663275651745888  0.8761579752539206  0.1253446658057359
  0.6368265503228951  0.8753775286532492  0.1190577362276875
  0.8777440946041736  0.8762274713254605  0.1198242268195578
  0.1202271707277738  0.1355001865458185  0.3700001616909118
  0.3588441801027313  0.1316514511819674  0.3821172693394250
  0.6246815833908665  0.1217929708623279  0.3796372996914557
  0.8652511073297189  0.1292491038254619  0.3759099315553706
  0.1311590087430587  0.3778294785983971  0.3767481410598732
  0.3924675739518023  0.3649643039790664  0.3661086761542481
  0.6372849404795262  0.3804279211217707  0.3644001355467755
  0.8888843852785782  0.3628576062501605  0.3657421844953569
  0.1321228779684868  0.6247664937252847  0.3664066782921451
  0.3624813223165605  0.6312412382018551  0.3734784722511861
  0.6118492721349454  0.6329881068668612  0.3819411901090289
  0.8653398216394331  0.6466001755127916  0.3620863648084076
  0.1188263966176569  0.8817248952531729  0.3802353324114885
  0.3762790751311480  0.8645905224693738  0.3733142932269833
  0.6258943724190554  0.8479388707741520  0.3828746099645506
  0.8880360932521216  0.8680536497727610  0.3773574412027917
  0.1296485622747472  0.1154388826772491  0.6171285065930948
  0.3908964551996125  0.1307446625723713  0.6143392776549458
  0.6162343811161229  0.1115287565975268  0.6244987609087410
  0.8765026835135787  0.1263388630170837  0.6290396692367350
  0.1132120895117442  0.3900127822766488  0.6133680163305590
  0.3632277525473551  0.3611182620739700  0.6378475621154205
  0.6377004172222527  0.3849418975014790  0.6106293141980649
  0.8614247747059238  0.3894210365753999  0.6141979518652226
  0.1249911805533868  0.6125562832528108  0.6166818426014650
  0.3719308263154445  0.6145776390723630  0.6228846952699283
  0.6285049736486992  0.6072359896052502  0.6283358766865301
  0.8635446364305037  0.6285483013707766  0.6205593047699106
  0.1361399942066626  0.8602365950417945  0.6207233148997450
  0.3714396565989674  0.8740579807142973  0.6273213025144362
  0.6214043472420372  0.8727721526923654  0.6277428369063823
  0.8582736470018124  0.8912784738574737  0.6132794494910357
  0.1280236631885006  0.1183446346362341  0.8762312462519765
  0.3697842655677624  0.1137530289594293  0.8966378774264073
  0.6083411479294012  0.1254934128118333  0.8934708203652011
  0.8637965983482567  0.1341356055427522  0.8700509013262970
  0.1296399241541257  0.3700626438010685  0.8732197501799133
  0.3885667625058331  0.3694391603506166  0.8775002663580102
  0.6122168989038195  0.3926764244060662  0.8758933468840213
  0.8730413716458737  0.3878910116616688  0.8700892477665126
  0.1225501627182494  0.6156076922280875  0.8955095785709478
  0.3610315829506115  0.6245607002525644  0.8959695852180033
  0.6300176269367914  0.6179895692063964  0.8729502237188064
  0.8537864944627623  0.6518153082036717  0.8764211394443904
  0.1256321565346028  0.8891044005334066  0.8615659601643335
  0.3771579788613031  0.8939092355510458  0.8601324189659331
  0.6219667628468368  0.8937560615151802  0.8602360698988046
  0.8649736785139144  0.8661252550650644  0.8934740065347155
