generated by phonopy
   1.0
    15.9923497217343744   -0.0000000000015236   -0.0000000000010772
     7.9961748610645493   13.8497811253384029    0.0000000000003944
     7.9961748610645493    4.6165937083140518   13.0576988688087816
Na Cl
  64   64
Direct
  0.9845117877702301  0.0114125919057427  0.0070791762407688
  0.2346494041671798  0.0039525948896104  0.9959752205710255
  0.5200095156577965  0.0039875324933868  0.9813972434592466
  0.7597646143509256  0.9951535279306115  0.0175380635342138
  0.0028478937466225  0.2470616570972869  0.9922043492957706
  0.2456748411373191  0.2505334647688701  0.9984881394569506
  0.5145251050620632  0.2609213842581771  0.9776429931590692
  0.7679517887973172  0.2562295508108680  0.9899865539257551
  0.9938943928924943  0.4944844369644998  0.9954531703479977
  0.2685630848602262  0.4674777279467296  0.0128923031476402
  0.5041878135799822  0.5013061541249257  0.9949410030134115
  0.7255353769967833  0.5170691667606616  0.0112903388833323
  0.0258557759562357  0.7573651994254541  0.0056358471570144
  0.2442224028680634  0.7354028252498684  0.0228165684284932
  0.4824037081211345  0.7651022710853044  0.0136526747420384
  0.7401621427137951  0.7633987634769431  0.9963013561749046
  0.9976314322899866  0.0064148063542757  0.2434874044670983
  0.2374241524914981  0.0109761749288351  0.2467650214392465
  0.5063326699783092  0.9924454924984916  0.2522279929383459
  0.7435192089287994  0.9994688026119612  0.2502723180682600
  0.0107411711010670  0.2355010766362389  0.2513727445022523
  0.2605906335427667  0.2380833078129463  0.2425384577410927
  0.4901501308677659  0.2628895490094377  0.2557006295606455
  0.7562677051755177  0.2518633415244180  0.2399218171692478
  0.0003008216279723  0.4955180953521546  0.2580815072826248
  0.2479431343230625  0.4993976047896049  0.2435327337766735
  0.5050767095911477  0.4886962990968732  0.2531178463193033
  0.7506313019366067  0.5002945944507187  0.2556430251678437
  0.9935508158670175  0.7492099278595774  0.2446634690475739
  0.2411860902053450  0.7508876172160029  0.2498941092017989
  0.4877200780946948  0.7559098857933630  0.2500234610099402
  0.7441995895342373  0.7373163005955409  0.2625251541701079
  0.0121772222833280  0.9865995571060578  0.5002914580515545
  0.2586546931536285  0.0153042674408704  0.4967453786243144
  0.5180926726576742  0.9841107306800017  0.4915753529878405
  0.7383869055502834  0.0239329463100874  0.5033095842262660
  0.0080968404628771  0.2591874319487268  0.4988163491521952
  0.2230786761207430  0.2484071290625693  0.5174926845833843
  0.4873667704766798  0.2574384944003925  0.5221235674298642
  0.7344376530188149  0.2594365523967738  0.5032852018130043
  0.0184771567007393  0.4944717495824937  0.5069547804001269
  0.2605385716471925  0.4991990625777661  0.5132472894479922
  0.4941117219828567  0.4975631170052354  0.5086861497067492
  0.7640262174913839  0.5081673797672450  0.4667069067985103
  0.0206187502806643  0.7426588406996153  0.4888947100076568
  0.2427202295282729  0.7483305012812245  0.5029489422467913
  0.5214782953112221  0.7379244255838293  0.4989335389518217
  0.7389105652455275  0.7719550521470644  0.5058327146599515
  0.9915691064264190  0.9994617120395007  0.7548853730010731
  0.2422867406601503  0.9917143661880256  0.7653000122512782
  0.5027800085790382  0.0112274979962357  0.7566171519906690
  0.7525778946752064  0.0105863649196172  0.7438240012514684
  0.9925259075851216  0.2427699404160735  0.7448819732890452
  0.2645303278068649  0.2419803257737641  0.7359582257178977
  0.4991572318260310  0.2512172231962789  0.7470648594475631
  0.7412226154046200  0.2559215123696872  0.7495691801263947
  0.9888404904963009  0.5096214958141609  0.7667478044829463
  0.2653950730121881  0.4947214177210971  0.7495786420627331
  0.5023453389437443  0.4961046178898685  0.7536118312617479
  0.7432815201865209  0.5096721029058942  0.7438316768159906
  0.9929650359839421  0.7418688183032425  0.7615973717348594
  0.2585798689198681  0.7455369116187315  0.7471637034525946
  0.5029376629399435  0.7597947021104309  0.7296040987535239
  0.7566274454391045  0.7528516297247556  0.7499519340916270
  0.1240764382859332  0.1293789181518838  0.0972894181397479
  0.3743475911099907  0.1399655388410289  0.1087029745972438
  0.6366281558526350  0.1129031975837412  0.1212065162788596
  0.8756774308955821  0.1290507106910278  0.1292247734748667
  0.1129271383536666  0.3700414970866380  0.1383855146565620
  0.3702980265480599  0.3724208126998451  0.1295696811747182
  0.6225399876309199  0.3760676640504012  0.1226541060940450
  0.8769229025589881  0.3752717952547429  0.1224587311095333
  0.1223401315561130  0.6417573096997262  0.1244078276222643
  0.3679313554159062  0.6291211311900370  0.1308664393284875
  0.6106146602683103  0.6307649814305558  0.1232467320544486
  0.8716948967290016  0.6257967795956257  0.1338392553083623
  0.1296105785388715  0.8742028435303084  0.1252856270945933
  0.3774305442864736  0.8697067054072997  0.1175144125459859
  0.6212908179616728  0.8776699700190622  0.1302788615124652
  0.8675819608177283  0.8816955562082439  0.1222007047290134
  0.1250951336795299  0.1197714817338268  0.3801907015029682
  0.3751360185780885  0.1360032879921283  0.3800071247318466
  0.6223528733437278  0.1163877570924846  0.3755882298567124
  0.8584357210738220  0.1292971388149174  0.3692948159971853
  0.1235650811238649  0.3927476756726421  0.3491889229353697
  0.3814333093353287  0.3634236388792899  0.3830481831676360
  0.6172444530167979  0.3705603660705499  0.3913981691671383
  0.8725510499374267  0.3879597828159838  0.3757979022348564
  0.1270302733957842  0.6244046321776421  0.3755449570928878
  0.3786031708028544  0.6350688245801738  0.3697479909809940
  0.6288581686230168  0.6364773357213455  0.3760994608545923
  0.8940719812758964  0.5977705916712454  0.3778830332149894
  0.1295196021118458  0.8718875821430475  0.3833523248442097
  0.3829293292591665  0.8739106725177594  0.3650821184699542
  0.6095610488082768  0.8597875872081715  0.3930226500183580
  0.8702874897623031  0.8754117984691865  0.3736365829177052
  0.1445347410387779  0.1272072752946987  0.6070426641743146
  0.3772794236617590  0.1303738593146327  0.6191833793760962
  0.6332484058584962  0.1222167908624897  0.6174168943047209
  0.8682245147109005  0.1252248433952291  0.6405448326324585
  0.1206343667063059  0.3811571164238295  0.6224551672100374
  0.3731602840371346  0.3854097496827489  0.6372192567908842
  0.6257082712762315  0.3796710219908919  0.6208091982587468
  0.8664629511731191  0.3768853525761795  0.6385616828988575
  0.1299213141927093  0.6196079907499251  0.6287380915022656
  0.3675576534159222  0.6280601544503805  0.6412336443659413
  0.6196484135040711  0.6121445300247816  0.6223557700188785
  0.8693214333958752  0.6138417992008465  0.6433741112192756
  0.1076645011258176  0.8632443523535555  0.6366889444377408
  0.3746078115590294  0.8852889801777440  0.6225303520234858
  0.6111698329279132  0.8827950255867894  0.6314688267845032
  0.8649222047756205  0.8810994094516380  0.6175758124974561
  0.1420119688189071  0.1224193703584625  0.8546922981336705
  0.3765364766691949  0.1136185401187019  0.8969876028952939
  0.6203256717591014  0.1434039735989683  0.8763828801616618
  0.8637258645981152  0.1303984013111898  0.8792159239232771
  0.1354604040878941  0.3749276389655115  0.8816365200669538
  0.3740718103511190  0.3604502366998366  0.9011064345220670
  0.6295754829267348  0.3817452864319106  0.8689086287438711
  0.8750578689745685  0.3906095545801402  0.8612687950806395
  0.1317775229665178  0.6200334638257949  0.8742020759401106
  0.3846079096623292  0.6158355360730778  0.8770830427666859
  0.6160468012406197  0.6185510917125713  0.8796525737909732
  0.8828698265233030  0.6208010425827830  0.8722262209028110
  0.1083221371450264  0.8804196273018654  0.8884218760173100
  0.3692064546299494  0.8820501276965824  0.8684742295648651
  0.6182602725484524  0.8819949275518215  0.8723907148921950
  0.8789759014557810  0.8600283174382326  0.8708428322036165
