generated by phonopy
   1.0
    15.9923497217343744   -0.0000000000015236   -0.0000000000010772
     7.9961748610645493   13.8497811253384029    0.0000000000003944
     7.9961748610645493    4.6165937083140518   13.0576988688087816
Na Cl
  64   64
Direct
  0.0075518673257843  0.9990935377270743  0.9963433113058606
  0.2536176563101162  0.9921832882407403  0.9913047756442640
  0.4725356437118260  0.0222559517890920  0.0054132535034854
  0.7337821040371927  0.9951899401442312  0.0023942477656806
  0.0043249922782615  0.2443785156543808  0.0032289859487691
  0.2504373747140247  0.2399074349879927  0.0102164331452447
  0.5017684054984674  0.2505387104160123  0.0103058718449067
  0.7435545451842969  0.2558530476142066  0.0066061864094164
  0.0041204350846729  0.4883484369920779  0.0079644503589364
  0.2370480970152455  0.5010267204420599  0.0014012033466628
  0.5145592390907952  0.4882477285933173  0.9985752607090002
  0.7505288182769491  0.4961462972770877  0.9962019475719646
  0.0008397326786276  0.7565725253980270  0.9925478188258047
  0.2580045307650877  0.7549791785493352  0.9908334855978285
  0.5145900617043409  0.7344108702904281  0.0103513204076044
  0.7498744164229129  0.7503226504463660  0.9982900500374606
  0.0101519606002049  0.9974518133447808  0.2346406681650957
  0.2498506047941283  0.9829998413518892  0.2572597209014346
  0.4797162309666631  0.0152246388499353  0.2505987837579295
  0.7648398770556066  0.0031504343482524  0.2391696221165954
  0.9819516771383741  0.2722686680898643  0.2444031212253151
  0.2513964962116179  0.2483409096686716  0.2530341868313021
  0.5007539400408414  0.2497310571198285  0.2442464665595254
  0.7421140022707380  0.2442777631537144  0.2673760595956429
  0.0103302356188927  0.4878118522499003  0.2336437360372707
  0.2322064533589092  0.4988069923105226  0.2667101889673636
  0.5093930887187895  0.4929227535768885  0.2500438559370862
  0.7471530218632912  0.4925398093731933  0.2348981807301326
  0.9920428831876048  0.7612778366095277  0.2443688111323684
  0.2623814755784628  0.7588956592846103  0.2297381415440206
  0.5024999842459424  0.7584912400578939  0.2406009608410830
  0.7586691373036372  0.7496222308690854  0.2489556141880714
  0.9895614167698473  0.0000677243856657  0.5019973946330357
  0.2627555179080263  0.0041620195571009  0.4907598716161626
  0.5003650861340164  0.0028515735380503  0.5015051270211239
  0.7830433418581115  0.9883987751256738  0.4892413965190172
  0.0024765346113925  0.2689526673475648  0.4873085499201400
  0.2483650662442074  0.2357041941427049  0.5110534702318005
  0.4952552544550398  0.2403792309281758  0.5116312772801381
  0.7662801368306201  0.2478975432830875  0.4859479151729281
  0.0030292150008906  0.4851203540566054  0.5157880930230508
  0.2517925498338851  0.4632224865154361  0.4973823335089620
  0.5125562581396793  0.4994973332865872  0.4942223557466744
  0.7661653627058223  0.4816761384762587  0.5174699431843673
  0.0022988322981365  0.7633464327154016  0.4857442582303294
  0.2540633624677428  0.7461733606256328  0.5019296022292729
  0.5063022379783492  0.7429954508047650  0.5104844422672978
  0.7457329563335466  0.7546313793457168  0.5068381434300105
  0.9916859754628371  0.9915062940792994  0.7714042691209683
  0.2516945642730001  0.9830658124307154  0.7512694066801461
  0.5011414767754364  0.9934493106264828  0.7582270029374610
  0.7562666778357301  0.0032551471687028  0.7567544819449490
  0.0056084094252892  0.2391800544637158  0.7585765891826081
  0.2349210208834510  0.2555437088749626  0.7643938072132934
  0.5010080589831887  0.2556238168595659  0.7501211059041549
  0.7557266999625457  0.2655642529446665  0.7475819546748801
  0.0091209983502494  0.4999928068132883  0.7323848841142275
  0.2452641745178134  0.4918010601250435  0.7620222620465753
  0.4931783854947300  0.4916357362660789  0.7666974363010631
  0.7667755323678298  0.5080141725852535  0.7387570382705079
  0.0006316789127753  0.7517855214804456  0.7571797186042460
  0.2432816376311657  0.7457925899157190  0.7543284466607132
  0.4870066404736272  0.7553225068756340  0.7384051559748355
  0.7538482939985165  0.7672523878999786  0.7463366884782194
  0.1179021075610900  0.1234693327035045  0.1242357633063823
  0.3861415588969521  0.1115625077627944  0.1278374157579198
  0.6252694848694140  0.1206737783448799  0.1359296615273351
  0.8661023210756853  0.1303587763625459  0.1373322185966288
  0.1170718944612652  0.3811854466629535  0.1123864421788496
  0.3960835727389483  0.3714426752388881  0.1088436099741602
  0.6321822374535394  0.3703566303351453  0.1252936090297995
  0.8909329353656902  0.3591229708649306  0.1235098361073384
  0.1333752672424591  0.6112774882071007  0.1243265599367717
  0.3859628855540287  0.6168233373078016  0.1176272802045308
  0.6419492081757759  0.6135097687711586  0.1134704952734307
  0.8892809485335504  0.6255895306732409  0.1145558013816640
  0.1479865301998420  0.8763726046846184  0.1139501347501120
  0.3748891273850076  0.8662388850803877  0.1293569772567056
  0.6175947045771614  0.8667817799903619  0.1348525878785817
  0.8702012197795178  0.8780292809270227  0.1382364242904197
  0.1180184604058619  0.1293525155159473  0.3722595527207519
  0.3738285072896186  0.1282815617108744  0.3768262288879954
  0.6255877870653656  0.1414530639930259  0.3639493907019281
  0.8767900307796725  0.1228766308118558  0.3683290625693492
  0.1290049669368214  0.3723529999060444  0.3676407523836821
  0.3843702956976156  0.3821531455660551  0.3751414568647351
  0.6255716908201541  0.3710991613177984  0.3808619333863952
  0.8957645714529545  0.3761240731918866  0.3665471379276187
  0.1312866712023622  0.6103652704905733  0.3834754368593887
  0.3472066071257944  0.6376457685233664  0.3956754328447361
  0.6294372712386220  0.6171627095504573  0.3777518490758642
  0.8808658535064462  0.6210426215608329  0.3753338595971520
  0.1203122391051975  0.8834223355754629  0.3604318743942592
  0.3936884699955777  0.8713826745845638  0.3564327523598859
  0.6232689067491024  0.8729374088287910  0.3778786168553819
  0.8693265579777645  0.8749380912719507  0.3923245525179226
  0.1411003652579975  0.1174659263490767  0.6259130551740570
  0.3758368690890084  0.1246765835489533  0.6219325075978543
  0.6287829924277508  0.1230000523605679  0.6258738490700438
  0.8761905376565872  0.1275181805495329  0.6196701569223718
  0.1253765195825784  0.3600551694991976  0.6295341063710392
  0.3653808845837067  0.3680614321430161  0.6367799054691123
  0.6294087116164404  0.3766602491064110  0.6034670082612693
  0.8831330149714595  0.3745314291810357  0.6165380016550083
  0.1214860852740453  0.6206805956318320  0.6347210568212879
  0.3699094647687229  0.6458749884510068  0.6076303321434120
  0.6139400638004641  0.6316467568798220  0.6262170460011361
  0.8724538078431037  0.6311425464219184  0.6246546714193658
  0.1249582845400577  0.8799995202385454  0.6408667259064070
  0.3603901119171697  0.8771280149085454  0.6399991668679126
  0.6184373612402532  0.8811236626713463  0.6230900953622138
  0.8719761065368059  0.8820034147377361  0.6201556962903080
  0.1193281845419207  0.1362445450043960  0.8775082745759741
  0.3832247688599159  0.1232594339713830  0.8769637827984960
  0.6224905176233022  0.1300859644302020  0.8747460400653224
  0.8730884127412278  0.1187815092067684  0.8764462910117565
  0.1406626017755938  0.3536739707524296  0.8747604703170622
  0.3610990685196127  0.3832558262368709  0.8660933016310459
  0.6204067051873449  0.3766841991866950  0.8839014877493250
  0.8623112062601321  0.3837962766771029  0.8696515859590541
  0.1258452736785185  0.6285997357076812  0.8721957862510042
  0.3657759836376386  0.6352276479075218  0.8741740068080487
  0.6149214885013657  0.6322083752129235  0.8675770889052643
  0.8875909782579071  0.6242934515309528  0.8655699789943349
  0.1387648596782958  0.8811988194148005  0.8696522917777684
  0.3795803687134518  0.8630560908259663  0.8847915222923217
  0.6098124213733531  0.8813135363018677  0.8833628156953317
  0.8643733977670951  0.8981128436617811  0.8641850314457267
