generated by phonopy
   1.0
    15.9923497217343744   -0.0000000000015236   -0.0000000000010772
     7.9961748610645493   13.8497811253384029    0.0000000000003944
     7.9961748610645493    4.6165937083140518   13.0576988688087816
Na Cl
  64   64
Direct
  0.0121670159352121  0.9748981073331965  0.0127802029314298
  0.2511758894415157  0.9787723994204154  0.0077651869523805
  0.4966733086577729  0.9948207119824241  0.0136529657424793
  0.7577835507551725  0.0119224303165162  0.9914381685337789
  0.0194991211037036  0.2657204303394049  0.9729322369685383
  0.2504319967639598  0.2642315542883065  0.9837562253952424
  0.4982751344503167  0.2605446697299963  0.0010388824800954
  0.7383221465131781  0.2690723290103177  0.0063564058972214
  0.0174454974605980  0.5137859489826906  0.9971748570429542
  0.2404651163177727  0.5297988669509582  0.9988625491094054
  0.5176202420642976  0.5065581090681269  0.9658095961033596
  0.7419391665516306  0.5139970751779506  0.9889708448519473
  0.9840613115276091  0.7678891191686688  0.9921376046362322
  0.2681136402004986  0.7735131285674620  0.9815822946325919
  0.5006754621174566  0.7488350629748711  0.0098085589415575
  0.7318138665810204  0.7696218032466613  0.0157888382124078
  0.9999666235684215  0.9938575141498628  0.2409634851939877
  0.2565787581421397  0.9869947467745059  0.2519875630976143
  0.5028137590796374  0.0087404023183197  0.2441106492369401
  0.7435877488031664  0.0306269036100488  0.2511057991009195
  0.0287506983934333  0.2407585758042596  0.2321666908438156
  0.2688573430119974  0.2435026921217073  0.2660130705978204
  0.5007687418844373  0.2535140275981881  0.2448550734366910
  0.7625930880438552  0.2429807346497023  0.2437077402995702
  0.0082780378811251  0.5067378036211896  0.2428489226860309
  0.2487703484383612  0.4932784635005157  0.2503333288779684
  0.5086040031586672  0.4880189230654758  0.2428054820263651
  0.7540994225098230  0.5013352600079285  0.2628412844941841
  0.9737754383563813  0.7728960168460671  0.2601097432548427
  0.2567048857145408  0.7527434336255308  0.2448971070236465
  0.5292348938329943  0.7478555907982593  0.2219059480317111
  0.7650999927708761  0.7474134130594299  0.2433062635408307
  0.9916472766455826  0.9961617206058498  0.4869000252448832
  0.2422202054440271  0.9936394722504637  0.5062044186502380
  0.4894517599941304  0.0149930632898400  0.5047385347500929
  0.7383551343631118  0.0111266088454679  0.4929844130610621
  0.9967695503996297  0.2428882316299424  0.5127618653390521
  0.2390850144233043  0.2480947178992867  0.5099353997564793
  0.5323212509328347  0.2402824000212120  0.4868142200565895
  0.7572609050703605  0.2413788572957749  0.5250478867600922
  0.0005496118363723  0.5025763097119635  0.5082772398838528
  0.2739399803286211  0.4877103694245238  0.4978318373225249
  0.4877907385443513  0.5107848500943037  0.4942278990197423
  0.7564203517880492  0.4897236593035386  0.4903026500144846
  0.0088552663027562  0.7449412520777712  0.4883139849666792
  0.2272679877692231  0.7563218223014639  0.5105806458712826
  0.4940391598993767  0.7698081269650234  0.4941716081230391
  0.7431368727917285  0.7540958025750162  0.4884759375522284
  0.0079980214218335  0.0048889005861718  0.7505992546365837
  0.2299648170184290  0.0054225063170825  0.7730871417779428
  0.4966373148202433  0.0071305626786829  0.7462289703862687
  0.7517754772955694  0.0083102472579174  0.7342293727091865
  0.9978122960497674  0.2346160303399637  0.7644962393678577
  0.2456277310469123  0.2630642903587404  0.7515833054302650
  0.5063645332023623  0.2693257883270919  0.7256809038690106
  0.7374441133371381  0.2494770414680729  0.7644989291248562
  0.9841720442172851  0.5041512071665115  0.7557230263238520
  0.2371835787111014  0.5140981328810902  0.7606503068116903
  0.4976943046022694  0.4935873240405296  0.7454914106586410
  0.7522549340258959  0.4805217380385171  0.7508364936717657
  0.0168078430793812  0.7505404753665057  0.7428886887519182
  0.2372485556056832  0.7493944185785030  0.7582440532808344
  0.4986076268526256  0.7410069861254955  0.7491490403968482
  0.7443583309716946  0.7361445175262904  0.7501447843709503
  0.1244997421205084  0.1219791397651186  0.1352441169870173
  0.3913144341945037  0.1314149793918891  0.1041256803375099
  0.6235166901062609  0.1276761350257128  0.1125489642123191
  0.8964324526086358  0.1176808885406605  0.1045302531126867
  0.1288228720184236  0.3730124290686932  0.1041535616031093
  0.3769577038626704  0.3821746186761344  0.1299426835404922
  0.6182128237900685  0.3813132189830548  0.1338153122487042
  0.8735983163769004  0.3830196997726293  0.1287453608073510
  0.1230431313769161  0.6203548854735893  0.1292939554057277
  0.3684301040219837  0.6264954010092876  0.1219921820878980
  0.6131007638630949  0.6251913940534205  0.1267963662517577
  0.8809390505916382  0.6061932301821946  0.1349456817719960
  0.1185972315588619  0.8756937778055703  0.1264334964071558
  0.3760760225968633  0.8801482215438595  0.1281270633302690
  0.6171161252607240  0.8727812738587920  0.1409844064839778
  0.8749471266463164  0.8766017958488261  0.1333998041334989
  0.1319271186959714  0.1348163527903239  0.3719805009879200
  0.3793408938593507  0.1117273479632293  0.3722927935297348
  0.6315883961236325  0.1231159821451057  0.3749710253229849
  0.8887108143778294  0.1266482162525660  0.3794973353273198
  0.1259656487020266  0.3725371548074950  0.3892641602411969
  0.3734902042815920  0.3778639502169377  0.3651735667844125
  0.6258902852156395  0.3830931417807882  0.3606654461819962
  0.8892998180169496  0.3898596695478102  0.3635712624490092
  0.1381732542595210  0.6291321426984751  0.3726854892075774
  0.3802285366621890  0.6288667536363791  0.3633643440191373
  0.6163269896647404  0.6466049079769641  0.3709036689836477
  0.8763122795347320  0.6165909242510300  0.3733369339170287
  0.1241209879286559  0.8810218221281071  0.3899080666128030
  0.3620699213630449  0.8764026678737574  0.3853334495571064
  0.6258319808942855  0.8703953848180628  0.3890806211289561
  0.8815210883446198  0.8653911463144832  0.3680628120028918
  0.1347728463380725  0.1076311394914972  0.6260538058099684
  0.3766049724541263  0.1138042620195248  0.6260228517794366
  0.6350845734394532  0.1206955888190728  0.6295286600981159
  0.8826286764188098  0.1146235018236747  0.6163912912159863
  0.1205659089262004  0.3701232158728426  0.6319044048005825
  0.3635040136472000  0.3773146661851196  0.6353607739277487
  0.6086055496266849  0.3699152091128453  0.6439515576553038
  0.8795982868684538  0.3666919692718406  0.6227394483919388
  0.1238177131214611  0.6369969581135251  0.6144096381375835
  0.3669391230720088  0.6371727595839802  0.6290415972572901
  0.6287030266319728  0.6116564605938577  0.6394589935940100
  0.8830871606303634  0.6266319875101245  0.6129690889639038
  0.1261863846227217  0.8686306399841895  0.6234686622555027
  0.3716757188964296  0.8942034369029768  0.6234148394419342
  0.6177850280202757  0.8712482461401706  0.6426077495805399
  0.8887679892135982  0.8638248195465802  0.6259928497768140
  0.1346871108840059  0.1094637380733373  0.8675828296021642
  0.3842401139596883  0.1160357642929622  0.8854772688211798
  0.6238308846580907  0.1193413388786629  0.8810909222025103
  0.8773271255319712  0.1306396167600459  0.8744201825879666
  0.1405888643459295  0.3596630416837379  0.8612864901896952
  0.3753556543035803  0.3577752220466158  0.8941954228703387
  0.6107375518665692  0.3796945448054158  0.8794989774827364
  0.8826804365374341  0.3734597196450390  0.8790461964907023
  0.1174097545576040  0.6360112825161812  0.8766228643723093
  0.3894124447486135  0.6125055907764734  0.8608971487198549
  0.6206405154782380  0.6278947535229745  0.8688579176379395
  0.8870616928048094  0.6068964742560033  0.8766516267701239
  0.1253516869539460  0.8811429221055136  0.8525691269770214
  0.3866481152267924  0.8733704783175541  0.8612887234754173
  0.6187437647364036  0.8746280480704358  0.8853314559188046
  0.8830660880482304  0.8700527276594382  0.8663409275988148
