generated by phonopy
   1.0
    15.9923497217343744   -0.0000000000015236   -0.0000000000010772
     7.9961748610645493   13.8497811253384029    0.0000000000003944
     7.9961748610645493    4.6165937083140518   13.0576988688087816
Na Cl
  64   64
Direct
  0.0057146685415827  0.0076977014652071  0.9900705309465867
  0.2517330812932355  0.0087168887783623  0.0015091232845069
  0.5236954933638527  0.9804235946658953  0.0047146279228466
  0.7616302102774395  0.0033361588772662  0.9941800768064079
  0.0061005365316181  0.2507233095944978  0.9882972416002379
  0.2569231142725963  0.2423244726342896  0.0077773696001751
  0.5038570499974385  0.2475146137093110  0.0042950323926474
  0.7466600573072721  0.2509347677422001  0.9962781600163748
  0.9906560750573596  0.5091795836851372  0.9930436761563683
  0.2564470474587203  0.5156026948671235  0.9748456664204648
  0.5263360928406066  0.4859579748110857  0.9825673642131076
  0.7489645550530648  0.5030624715522689  0.9942678282741113
  0.9993268129866563  0.7480703227023032  0.0013296775784427
  0.2424268242587398  0.7326053287165992  0.0231684187711737
  0.4969090319524220  0.7555163544778777  0.9903427418867438
  0.7616554029669067  0.7471982914634305  0.9882128594611475
  0.0029283531012288  0.9902117563855226  0.2531922012109108
  0.2627032262135544  0.0111926459232106  0.2544098043923007
  0.5092009455936177  0.9969578200888615  0.2504272261964914
  0.7568892632193402  0.0092282372364354  0.2322299029862545
  0.9974607481453330  0.2545917112875772  0.2279502964698246
  0.2465686270462490  0.2581373422405812  0.2599546114913511
  0.4959775690072112  0.2594511681538542  0.2505028404138950
  0.7465486620651874  0.2525251220597506  0.2505084198837113
  0.0123208222190871  0.4692858069425718  0.2458003952101716
  0.2587640020585373  0.5023743336338269  0.2325747111183092
  0.4915774775359448  0.5044731355349711  0.2469480139271336
  0.7445345382915221  0.4924029789154426  0.2367802985348131
  0.9953862755258407  0.7425870983913861  0.2544965042642999
  0.2502103678464975  0.7320037440932342  0.2688033585493312
  0.5085743550472279  0.7305626890481215  0.2374189760279429
  0.7467167412723941  0.7434793265247559  0.2544500175147432
  0.9985201291656389  0.9901828228775926  0.5014120175791583
  0.2413502955115683  0.0156732915194588  0.4891945831071985
  0.4967110817170489  0.9986694404774971  0.5087940669342942
  0.7476539883789250  0.0021741880218841  0.4921956067296370
  0.0091810272385405  0.2429421951163426  0.4904244525276874
  0.2564498317940317  0.2447735444368432  0.4983780107687169
  0.4933115280541175  0.2431151308569275  0.5102318093802104
  0.7651988972455630  0.2524878596012829  0.4737290714885490
  0.9956421564925649  0.4963164618351860  0.4986364812101990
  0.2492495201394160  0.5140027754435672  0.4824102981525742
  0.4960301608479126  0.5000979412559252  0.5147020063489323
  0.7397936605698269  0.4994676491189964  0.5054056583920270
  0.9816224350131776  0.7415003508683021  0.5102143653303582
  0.2339603460718911  0.7639511890185356  0.4938755967704971
  0.5045983233362761  0.7290001384227726  0.5199622832039446
  0.7508100993280095  0.7551431359950418  0.5067164909817407
  0.9857966519268916  0.0006766417206990  0.7370766659349495
  0.2596706383747587  0.9952616930775743  0.7418782753155146
  0.5051721936065952  0.9810283327886700  0.7591841313405204
  0.7475248739795414  0.0067785184914651  0.7424128933339765
  0.9999704870804458  0.2349751248057554  0.7644983539710486
  0.2590639065337082  0.2348757885316385  0.7509554549365640
  0.5050128718203365  0.2632014985635830  0.7366791456410046
  0.7538798848076763  0.2639173343312846  0.7399634701732750
  0.9875041805759460  0.4952233470647263  0.7421490420946679
  0.2678235032280024  0.5099228651481345  0.7310410132746626
  0.4923790208502353  0.5046905843352918  0.7654694406951681
  0.7608775297709975  0.5027955273973242  0.7341798033520380
  0.9897237495460177  0.7422508993511414  0.7611628418909507
  0.2648663782851456  0.7444670607844306  0.7597762190927604
  0.4914065640364389  0.7685150325280502  0.7483980993563799
  0.7605255707939887  0.7488753080541561  0.7393675252387455
  0.1314124565465498  0.1206814805780682  0.1239520078510119
  0.3582505487182469  0.1254990827623115  0.1403321717939213
  0.6262728261833397  0.1141007658208323  0.1252235008188641
  0.8603580204408632  0.1425341855824537  0.1142505259445527
  0.1299429373299723  0.3792466846993364  0.1180570815765974
  0.3705626026947402  0.3621823142207666  0.1407167967742931
  0.6327656625956569  0.3697268825742819  0.1291340732027136
  0.8809149852994469  0.3841839523751446  0.1193049445242350
  0.1198655245990118  0.6323621666087720  0.1085108424132129
  0.3767820833499822  0.6251518537088722  0.1328866950416089
  0.6445788682058903  0.6089710996418314  0.1141683280205260
  0.8839790554626833  0.6275884998234865  0.1260294987857902
  0.1310726942281698  0.8588250579060526  0.1323836408707739
  0.3783483110647604  0.8726531255070953  0.1211059334035572
  0.6323282610459962  0.8782486071819678  0.1248529281908559
  0.8608641386791788  0.8593075598467105  0.1443990455775888
  0.1081332870110742  0.1160791434568792  0.3929502125914079
  0.3707463922437254  0.1350034952704185  0.3780180220422039
  0.6385912529195508  0.1168823968090082  0.3563948652438931
  0.8823370825646839  0.1248137633728416  0.3531666296197854
  0.1176406639655606  0.3614649279303008  0.3788849169149897
  0.3765329452705725  0.3869804532245782  0.3671928947196624
  0.6200977844071388  0.3897162674767731  0.3736654203479831
  0.8721768864320136  0.3742388715519572  0.3821933990484179
  0.1149886405894187  0.6268687683488752  0.3803165957105792
  0.3612045045878831  0.6214213507109400  0.3882292542678354
  0.6337939763155962  0.6277570274156388  0.3776474207153485
  0.8826752472307093  0.6347580088076085  0.3767839917433808
  0.1263003916803896  0.8892322502434764  0.3684227532989563
  0.3587000845949087  0.8807209158709133  0.3641953397083398
  0.6216101049960960  0.8647979282337459  0.3890644255280474
  0.8738128048022173  0.8634906134697387  0.3786562076875321
  0.1243984817863068  0.1140489862159750  0.6334235845752646
  0.3805175972941577  0.1035861817986621  0.6329666710916995
  0.6238929691176981  0.1350119798366782  0.6151574305247699
  0.8695884694501799  0.1292448847692640  0.6360638230003622
  0.1205910045605073  0.3831830151661253  0.6098933501228430
  0.3684777628950329  0.3952233011671702  0.6141286275723825
  0.6191338187868920  0.3552277537103427  0.6337927540087840
  0.8662120034835132  0.3732414166058189  0.6107371658078624
  0.1282904709238195  0.6253855151934902  0.6161814644934905
  0.3706661757726851  0.6385901163734937  0.6259780676677419
  0.6056582979421111  0.6322369486064204  0.6435364107229952
  0.8831567882251783  0.6230523659327617  0.6173315433053445
  0.1246265701151627  0.8790600449269909  0.6227179635727542
  0.3615139598820522  0.8874254496355837  0.6165627275629039
  0.6226606749636101  0.8935454945324041  0.6224580438349659
  0.8703900951593200  0.8751765269280568  0.6238007344109860
  0.1159755986607908  0.1288729821878527  0.8823614729137929
  0.3646387548754456  0.1284404664300965  0.8874567896081264
  0.6387959801446672  0.1183652124564489  0.8874838834607761
  0.8719186747393017  0.1430912457030558  0.8707415366625322
  0.1213317904318484  0.3599655854152021  0.8859557819549840
  0.3724375122752558  0.3648233117781711  0.8718372234981954
  0.6284807392598093  0.4029928463246473  0.8663704475962980
  0.8728860961347544  0.3769316567354581  0.8763847526924291
  0.1134846979204637  0.6237493952480251  0.8776130481428930
  0.3761685395244503  0.6193715316531123  0.8684871819373512
  0.6255129263953787  0.6246260232036391  0.8791648288108854
  0.8726428962408590  0.6377590864573663  0.8799657427576393
  0.1375447338430030  0.8805984609500342  0.8637425407427495
  0.3848862502849275  0.8775254240966004  0.8739754124172100
  0.6269182751319254  0.8722395309530677  0.8689194533896165
  0.8694611464414004  0.8724871171533943  0.8751968140458743
