generated by phonopy
   1.0
    15.9923497217343744   -0.0000000000015236   -0.0000000000010772
     7.9961748610645493   13.8497811253384029    0.0000000000003944
     7.9961748610645493    4.6165937083140518   13.0576988688087816
Na Cl
  64   64
Direct
  0.9938698728961657  0.0030644462736101  0.9911849599222934
  0.2665250928442397  0.0023292768395438  0.9996626060670021
  0.5074680790220517  0.9983495554889463  0.9723563756290179
  0.7544647093011220  0.0009547927038597  0.9985307959845521
  0.0053001724181746  0.2506934970161978  0.9886866686584423
  0.2620955315795875  0.2501974288725662  0.9955619337591737
  0.4810952894612366  0.2561830773199579  0.0163417299172686
  0.7588995559312161  0.2451284863382281  0.0050445907530871
  0.0118812139749674  0.4993822909754650  0.9965933736890688
  0.2512606698921848  0.4788428269394933  0.0021441809604093
  0.5092978279119500  0.5105795354016966  0.9997914139700024
  0.7642242458846024  0.4955239142607301  0.0040878646153417
  0.9895701002726295  0.7571401539560736  0.0103042490895157
  0.2493568135670884  0.7511704428361704  0.0016258220208907
  0.4948487548310931  0.7521835931573174  0.9947557372985645
  0.7605223408997150  0.7593692828113509  0.9956513085528567
  0.0297505884433973  0.0013536898075448  0.2296249594908861
  0.2558535565980600  0.9962068388293708  0.2473316791766455
  0.4929539901931365  0.0073884126916040  0.2394641510786627
  0.7589189576849348  0.9979860374977290  0.2338212679875057
  0.0032609914003742  0.2661009322466705  0.2550854323794188
  0.2655253370414090  0.2320872443468459  0.2336563700210409
  0.4827888271794148  0.2463081344419684  0.2549953454905422
  0.7567661888263794  0.2506792465243872  0.2324534860412719
  0.9836053442307923  0.5035551662761966  0.2759880669552220
  0.2561547908082979  0.5036728577314751  0.2340945596234113
  0.4943991456957986  0.5112326421933184  0.2428108027696859
  0.7698724826518258  0.4973505641146383  0.2470670060037452
  0.0073477466587865  0.7559955475199791  0.2403948629183325
  0.2511095312853939  0.7705319046787715  0.2476251498385872
  0.5075968728953317  0.7385367591042603  0.2653399181114947
  0.7566150739954782  0.7441870767371055  0.2312007108921046
  0.0000758328882362  0.0021838943847837  0.5025685267874792
  0.2338664514767609  0.0086766632073146  0.5148289783993458
  0.5132791879893311  0.9699630168572014  0.5189878870630665
  0.7501678832307990  0.9934309899347963  0.5050995019653551
  0.0090100889887168  0.2468806333428864  0.4934408164379781
  0.2483596592751895  0.2565874464674754  0.4998479685680220
  0.4958501557330023  0.2553977613901296  0.5029547066231365
  0.7620103929746501  0.2468991753629243  0.5073091550289687
  0.9867843995663400  0.5137240170752965  0.4989912033991235
  0.2483131458259918  0.4877886244725952  0.5101218112142319
  0.4952222376023626  0.4885531292802151  0.4980354711562613
  0.7442286682282485  0.4974280812751153  0.5169612709932875
  0.0040471127207115  0.7480189319397181  0.5031795270006097
  0.2446207545463499  0.7513595301241449  0.5012490238111535
  0.4872076623422027  0.7544153400686142  0.4964012957110000
  0.7339737854453816  0.7611643259398424  0.4843339799493824
  0.9949841830936709  0.9920851254657905  0.7506454085900495
  0.2504098549615721  0.9982661549464893  0.7639139977010629
  0.5123303589809087  0.9999817350953393  0.7309144520483970
  0.7435665802914322  0.0098060577669866  0.7510544878779071
  0.0196151529075245  0.2494423336311374  0.7371024736797765
  0.2459570822952249  0.2558797814665795  0.7576761219885750
  0.4877710744181566  0.2481647740574470  0.7521349673729755
  0.7584070946988044  0.2511491790228961  0.7443501146394526
  0.0052089259794836  0.4920581641105791  0.7463094847871719
  0.2507966887523835  0.5012339800005536  0.7450922102651010
  0.4906583608731838  0.5161150334375842  0.7357507047459380
  0.7392144704848681  0.5160697271974435  0.7455680727272580
  0.9990895857719753  0.7489552576380334  0.7465913920331364
  0.2544769631227383  0.7534779844450484  0.7314442862478764
  0.5056425942824795  0.7382524793460732  0.7462404768859854
  0.7583270839712631  0.7475839545108640  0.7563044046893459
  0.1187735729065463  0.1248997838429171  0.1380051314355337
  0.3718753611833217  0.1337851681869520  0.1243551678475843
  0.6398899167047779  0.1177884871666867  0.1143432592256599
  0.8681835127086357  0.1429583099687309  0.1217222697659141
  0.1266034808940131  0.3776389069984647  0.1389999455366343
  0.3640323262139269  0.3835430267463988  0.1275183691529705
  0.6321296936794026  0.3740184068550696  0.1154994524702681
  0.8629680714856749  0.3800985741306067  0.1379477587019031
  0.1445645199806986  0.6118643423487078  0.1371256938732367
  0.3696455090353319  0.6309190235810435  0.1243973407296022
  0.6195787277016558  0.6445287371620680  0.1186312197370453
  0.8862067728308355  0.6135621589935503  0.1264946471538413
  0.1179865303362306  0.8903817201994922  0.1150263810446724
  0.3732512448798651  0.8766959727192838  0.1194319148628822
  0.6240378016672693  0.8708699686365290  0.1267147665903956
  0.8752875534046169  0.8681123256025490  0.1261174475346743
  0.1144665404647792  0.1292866883589941  0.3880065168258590
  0.3560310472209540  0.1163792660859728  0.3917400478947716
  0.6271299303181894  0.1159511927030565  0.3783433579654655
  0.8682463417866862  0.1254271224188059  0.3874357325881181
  0.1251936594278628  0.3761113890816239  0.3718746321752304
  0.3830167507713215  0.3858862518846503  0.3757655569654625
  0.6329974541065346  0.3783425090520485  0.3668783004214346
  0.8758751234208562  0.3717623010169219  0.3737154110851811
  0.1170669107783310  0.6359494355486965  0.3648953954705544
  0.3673586006488768  0.6297094405998105  0.3843355034924573
  0.6247104833702917  0.6321537527107344  0.3783355557301624
  0.8670182210212197  0.6362559060436163  0.3676692230678172
  0.1322687870284196  0.8876618998418487  0.3634195953025072
  0.3888874316243279  0.8737739648920009  0.3662680462535486
  0.6136510420553662  0.9030095004235883  0.3572507249235535
  0.8709551890455578  0.8863340451595068  0.3681369132676447
  0.1258671303064565  0.1390288507789047  0.6371606105023916
  0.3866736845625076  0.1337425538245570  0.6187572046683253
  0.6279615935848710  0.1348029658085940  0.6263234644337734
  0.8705574933372100  0.1294669758005165  0.6213211647459714
  0.1154471661479432  0.3695517231108575  0.6350122695195290
  0.3732371029289386  0.3674522266376299  0.6410493600643415
  0.6270300863110723  0.3715110523135565  0.6228380078156571
  0.8682216025986692  0.3724706614673501  0.6275495378676496
  0.1186661688592465  0.6437628080048160  0.6106090788263530
  0.3676165422864300  0.6473153684883772  0.6178314078831300
  0.6289741429672412  0.6211705685072619  0.6267597799362591
  0.8760636945736524  0.6247886134647491  0.6218664932923614
  0.1438438638336384  0.8810164363880990  0.6107075579396588
  0.3608972803716478  0.8833679738086836  0.6202481613945359
  0.6322578811615469  0.8733734559454577  0.6204032121343802
  0.8888680755750106  0.8741170217122938  0.6104234308168146
  0.1177702609115998  0.1227053770782091  0.8673574326444081
  0.3778855879190332  0.1501904610094737  0.8504549962340148
  0.6379630058958251  0.1245271154930405  0.8634256469704632
  0.8866971409790827  0.1253880885648073  0.8694198794270755
  0.1318337000825247  0.3685852714693515  0.8822643535143073
  0.3711519017893317  0.3835714874256055  0.8732128018311924
  0.6270508970803661  0.3726367452638210  0.8883851962678473
  0.8796930149546720  0.3547989509866036  0.8779722804820085
  0.1265015558484487  0.6343623967632921  0.8717257751800279
  0.3898572468731640  0.6152147254209335  0.8778085051495901
  0.6139947897128357  0.6132985144715006  0.8877060628666146
  0.8730227305681766  0.6319190547627953  0.8782259090470665
  0.1232904583692779  0.8689676224687555  0.8871859697641864
  0.3668523699144409  0.8827082239950796  0.8912650484486215
  0.6327889715454955  0.8707069968844536  0.8811096757543381
  0.8708637970054781  0.8870941563896380  0.8682337256901980
