na1 cl1
   1.00000000000000
     3.9980874304335936   -0.0000000000003809   -0.0000000000002693
     1.9990437152661373    3.4624452813346007    0.0000000000000986
     1.9990437152661373    1.1541484270785130    3.2644247172021954
   Na   Cl
     1     1
Direct
 -0.0000000000000000 -0.0000000000000000 -0.0000000000000000
  0.5000000000000000  0.5000000000000000  0.5000000000000000
