zr1
1.0
        3.1032063961         0.0000000000         0.0000000000
       -1.0344021979         2.9257310249         0.0000000000
       -1.0344021979        -1.4628656521         2.5337573115
   Zr
    1
Direct
     0.000000000         0.000000000         0.000000000
