generated by phonopy
   1.0
    15.9923497217270576    0.0000000000000000    0.0000000000000000
     0.0000000000000000   16.9624484030100007    0.0000000000000000
     0.0000000000000000    0.0000000000000000  149.9856557282382141
Na Cl
 192  192
Direct
  0.1729763136411716  0.2461584939956157  0.4132019419579435
  0.4425198768379344  0.2498293804715730  0.4140681284466294
  0.3158284405491483  0.0666182759664228  0.4004326962568933
  0.0655204928251910  0.0860835535960434  0.4000010944323407
  0.1847522941639142  0.2516499661250228  0.4387252594597360
  0.4420084344567186  0.2597631229278524  0.4385466800790774
  0.3207300988444702  0.0863279265747683  0.4249823500162658
  0.0911316327030998  0.0961005640931895  0.4271042321154432
  0.1764337574827181  0.2515631206415868  0.4665791067005087
  0.4473372581069472  0.2359748754912365  0.4668993363624173
  0.3148714182802148  0.0837133538508043  0.4534445907728339
  0.0617902280432396  0.0808145666923138  0.4537626228000155
  0.1665407898932918  0.2403190473981214  0.4938947546495960
  0.4382323919083856  0.2581151087840168  0.4941277371137697
  0.2979620948600809  0.0766962832402330  0.4793114273631052
  0.0574338361844215  0.0976565100838519  0.4779269536982637
  0.1997749684257508  0.5903544770135603  0.4136264559510045
  0.4293731559684617  0.5806937478855395  0.4137054347654078
  0.3231725621123133  0.4202015581103773  0.3994444905086622
  0.0618289895376496  0.4010478883182389  0.4011184232173758
  0.1832341243448737  0.5871685832467972  0.4395288372152541
  0.4341102160326020  0.5766236751623346  0.4405374070496199
  0.3239913440058640  0.4150668390935240  0.4270221087311413
  0.0699166676291904  0.4241010461698058  0.4251271075799017
  0.1922210849001955  0.5833435582851506  0.4669827831957338
  0.4310722043366790  0.5885706925634850  0.4673303812524820
  0.3030933147238736  0.4143043877307773  0.4526205432780537
  0.0752546836375350  0.4233768277671118  0.4530287687567016
  0.1819558214494060  0.5869599294593728  0.4923666245235453
  0.4219088111636334  0.5957082474998058  0.4928665590032210
  0.2993218221738424  0.4221880949430071  0.4787555521013842
  0.0653073133703795  0.4204806916397770  0.4805848340888986
  0.1988030001307305  0.9047607216905520  0.4153985401978316
  0.4331458332616223  0.9168125758603386  0.4130251201758950
  0.3119156837450970  0.7510794311016510  0.4005553721119722
  0.0701838651744508  0.7656312896517892  0.3975734250967419
  0.1797273540981655  0.9126416269927923  0.4410528417589872
  0.4223491507875992  0.9185723579202310  0.4400312545931012
  0.3110005415983789  0.7367076590679071  0.4262726442535100
  0.0607405291498213  0.7404646887379392  0.4261829691822988
  0.1746135149704852  0.9124416200779270  0.4671828426178650
  0.4363525471612900  0.9263437970047532  0.4672092560611835
  0.2928954949770352  0.7728247567261098  0.4523292259313446
  0.0741363103492220  0.7379082803534912  0.4539857271842072
  0.2006589936529023  0.9199028577704581  0.4933002880508852
  0.4505972668120824  0.9102542015845870  0.4932890510909897
  0.3281347909242523  0.7395653770956594  0.4793520268267044
  0.0740165669681262  0.7496108463990844  0.4788286341859251
  0.6845115872514056  0.2445763456004202  0.4133150928870794
  0.9465847528778119  0.2490163161231748  0.4140324013836230
  0.8305406310472220  0.0868157593529003  0.4000189108747760
  0.5599243996506166  0.0764345512892958  0.3997419533342367
  0.6846884060870039  0.2550739488878699  0.4414621806346957
  0.9275364826576865  0.2584437119032470  0.4398427413688454
  0.8273880347042473  0.0700521490893946  0.4268110661029029
  0.5572575111859124  0.0952604514195180  0.4251918077544505
  0.6801405210351354  0.2563420611089511  0.4654282366458475
  0.9412898257860758  0.2743219052132415  0.4676395567160880
  0.8125283900110709  0.0854675695633536  0.4527072178625381
  0.5755003824975986  0.0820637186928888  0.4546280661091411
  0.6929645216963713  0.2595925837253839  0.4922019806506916
  0.9385072267490512  0.2448163061968281  0.4941996524748289
  0.8072143866291742  0.0890954869223839  0.4799522573949664
  0.5674745784662364  0.0796419519882941  0.4790440258359250
  0.7021219580760019  0.5866081520540399  0.4140268590124254
  0.9270174076981416  0.6006415751182875  0.4140208159143279
  0.8262469803170280  0.4183082970106416  0.3997787677644530
  0.5593042867873737  0.4171934419416674  0.4015950462767479
  0.6771332823781175  0.5943078881140473  0.4414207715135826
  0.9528672756460723  0.5868678876605812  0.4407239287139747
  0.8193588506841297  0.4220500331232989  0.4273662226625618
  0.5730892583177767  0.4108174869568572  0.4258944068767200
  0.6817889534311512  0.5929439091949443  0.4667966291285079
  0.9239615251560895  0.5833612540504013  0.4661581476883638
  0.8169376983502128  0.4161582852125905  0.4539986581583444
  0.5560866793539950  0.4249366083202775  0.4524877400723991
  0.7048512568334219  0.5914066256202777  0.4925919476047862
  0.9311763499199072  0.5951619527972670  0.4933473551795038
  0.8129144855635274  0.4163121717677224  0.4807714984206797
  0.5572979289563423  0.4201269451229089  0.4796940692737908
  0.6877555808721567  0.9075592846736651  0.4124778978525357
  0.9522499047433834  0.9152323874350022  0.4145703927469729
  0.8060344118228496  0.7542964586169593  0.4019475549343848
  0.5648691790085466  0.7666658291392903  0.3993275278084200
  0.6847555595451942  0.9230720081594358  0.4398075494080380
  0.9432286267033329  0.9248693730222806  0.4409115265934372
  0.7998132208257379  0.7587325322051743  0.4258892466575105
  0.5579077730363804  0.7380401163898177  0.4271029596332739
  0.6928981900576385  0.9207944238600250  0.4680775721418712
  0.9382082734989612  0.9234153091172097  0.4664524590640123
  0.8206317451317046  0.7332153512533895  0.4527123901528424
  0.5451645571346432  0.7549303939365848  0.4533077115701131
  0.6916630760109079  0.9173109447083937  0.4938441099486718
  0.9262949510582191  0.9180248545398721  0.4936766461587621
  0.8050236777822275  0.7469351962705205  0.4793468301458337
  0.5722735251694244  0.7403800305583551  0.4804807904407246
  0.1936530349564542  0.2357183586331518  0.5195941182786575
  0.4314875110790733  0.2629678060508817  0.5190975410784624
  0.3157049232743361  0.0819662836895498  0.5061207949076563
  0.0504394584335945  0.0717188809934268  0.5083925170975292
  0.1918524411038706  0.2541272612917471  0.5465194103844511
  0.4390389667663927  0.2293220272641662  0.5467119730791695
  0.3236367559312135  0.1099119993707097  0.5334670517196246
  0.0584292971483566  0.0894328858164284  0.5327270297690528
  0.1920976764093083  0.2348085263217906  0.5746268959247062
  0.4336142955101540  0.2465731775525499  0.5719896438430612
  0.3053959116810125  0.0902515113236508  0.5601835567532926
  0.0564439364783464  0.0901591734773073  0.5613660772995234
  0.1809469379002153  0.2658728503983919  0.5993955551615823
  0.4400021721319167  0.2602526581990271  0.6010630822419489
  0.3008647369581139  0.0922966587633226  0.5876409119239283
  0.0608956988196754  0.0851732566788989  0.5879438847820881
  0.1934522258877800  0.5874959832885134  0.5186973882563033
  0.4308144311597896  0.5725717263472641  0.5201924327530948
  0.3036569449700628  0.4232831906497620  0.5057718180139478
  0.0635004126125204  0.4272158678798701  0.5062475723767264
  0.1729190229482399  0.5876977216862411  0.5464361954105398
  0.4428077768725566  0.5841452033890114  0.5439070603258215
  0.3344859905915342  0.4126376202483301  0.5329853205255823
  0.0662776063463698  0.4189893343083527  0.5331989029519294
  0.1691125443698739  0.5848940700014966  0.5738812739299278
  0.4272640905053107  0.5799739675606844  0.5745422905643303
  0.3198396388268723  0.4053423312642556  0.5605844533883718
  0.0498970268432762  0.4315168704314339  0.5606282083752705
  0.1864175328610131  0.5811378148208498  0.5990051324367232
  0.4417741693229173  0.5842050680802766  0.6012613579735252
  0.3031840232794406  0.4067729604140869  0.5870458126328113
  0.0630530489130250  0.4080376544718919  0.5876951536621091
  0.1916223675288331  0.9108320477526173  0.5187693909961935
  0.4325388911733080  0.9224462418195855  0.5196456810782487
  0.3185831192717539  0.7592178999701599  0.5059579613016363
  0.0627622981339240  0.7457836525533427  0.5072768570792708
  0.1883340004035692  0.9343998289287958  0.5464383141857478
  0.4508638661622275  0.9088395067330300  0.5455530967838792
  0.3071345420236807  0.7530528454288892  0.5329795790558317
  0.0579254449500218  0.7395711056597108  0.5318931360299406
  0.1909295096670773  0.9046522224590140  0.5717020016728361
  0.4236516945617595  0.9067815124108727  0.5731842486481508
  0.3023352021143578  0.7497748537504639  0.5597078975435275
  0.0607694815138737  0.7561443738188944  0.5577797339401964
  0.1991639764074226  0.9216872351941162  0.6000706846445666
  0.4346321424354519  0.9083793416630407  0.5997733456719031
  0.3155512381439951  0.7640857861455432  0.5862490272525924
  0.0670653161034576  0.7457524779555061  0.5865742432826225
  0.6922600095122571  0.2437835025845864  0.5192858390317543
  0.9532269204261604  0.2482735652096238  0.5208658253396451
  0.7978116664921651  0.0767102449130545  0.5061454060321869
  0.5508218616493403  0.0861275012840972  0.5059982469664430
  0.7029482807687248  0.2493733329442581  0.5472364450956465
  0.9502831594022079  0.2508156007928994  0.5455376395233115
  0.8136158379473335  0.0697641580720040  0.5313157885754424
  0.5673883806000047  0.0926711290480567  0.5336561217262377
  0.6826521023941915  0.2418771228228063  0.5738538387652923
  0.9467074024435878  0.2422180123546760  0.5720507047066837
  0.8207503200756122  0.0870380434067993  0.5615074768137118
  0.5704041896599368  0.0784369071197808  0.5596420373516607
  0.6938880813778010  0.2530272669643371  0.5988681745887078
  0.9423656776045481  0.2524710089878851  0.6003551563143927
  0.8192461924676089  0.0921832488320380  0.5862724976586544
  0.5559329283010616  0.0720825846348526  0.5871683607975632
  0.6670645684181674  0.5801897499886756  0.5213971235044076
  0.9252846414379630  0.5877380583847943  0.5211320037122167
  0.8071872926765822  0.4173557058134505  0.5059848381160383
  0.5626164023955704  0.4124250541529770  0.5046676615504352
  0.6931200403133762  0.5781354107996078  0.5451507682834701
  0.9491996966690143  0.5755702681339022  0.5489349717909165
  0.8092296281701408  0.4111479884700323  0.5330404328976927
  0.5583727392910294  0.4177876121782927  0.5338686824312676
  0.6748301491884411  0.5880426500270706  0.5736325787003441
  0.9374395399524975  0.5848819440211542  0.5736763004793132
  0.8140339820400401  0.4318890276799546  0.5607244273211542
  0.5649000053911747  0.4177188008882842  0.5578369678196555
  0.6954643744245639  0.5903675057412777  0.6005502097839205
  0.9345676109726736  0.5642467242414145  0.6002866546887786
  0.8122300039766271  0.4310303237471174  0.5868622106334902
  0.5511928898402138  0.4143750122022307  0.5882377324886015
  0.6842693620227907  0.9282388553634950  0.5190766902738589
  0.9363602201550602  0.9181678772424616  0.5210560556616279
  0.8201740629741183  0.7560014922220558  0.5065131524601331
  0.5716246045991256  0.7612030850426402  0.5066897079857443
  0.6803945699349594  0.9244042524500962  0.5456999511414083
  0.9464941458849666  0.9248841130278347  0.5462195828661569
  0.8215554031146680  0.7412261933195319  0.5318675694509266
  0.5769022546139493  0.7497000172723501  0.5332667554146747
  0.6789395781855426  0.9204380287278195  0.5753527209264339
  0.9480206736637964  0.9189392675721620  0.5738135874261094
  0.8162747686466439  0.7588297183792283  0.5592883063093820
  0.5573268948310318  0.7520661270646579  0.5617925575274026
  0.6785908677040194  0.9174647906613066  0.5995765214149765
  0.9335270862096580  0.9214720086239541  0.6002672955833890
  0.8164941939759210  0.7432927413954338  0.5853369595629256
  0.5537726295693478  0.7415329750109079  0.5870022648166998
  0.3094524838036501  0.2430314833841232  0.3990563001912317
  0.4357391768049060  0.0688138735420508  0.4134406046732852
  0.1881550721032453  0.0856611497426785  0.4138768489825707
  0.0660776764008908  0.2459967369515312  0.4009859428017406
  0.3213840481671641  0.2599289982832806  0.4249501644038689
  0.4294861682568575  0.0775690415254665  0.4404875731984166
  0.1801870516701358  0.0737769965457389  0.4398272485035152
  0.0688819000282758  0.2563324514229890  0.4280362401610410
  0.3235782874834130  0.2455488670789753  0.4537727821911516
  0.4383079104310967  0.0810845407564348  0.4650110459948170
  0.1807921446646706  0.0668314899403203  0.4650601156413946
  0.0677865931249752  0.2489997803959536  0.4542471931602878
  0.3155821274209696  0.2530568539303101  0.4783042079017599
  0.4452376757135573  0.0913298061122209  0.4932149849979890
  0.1779313259092347  0.0853751023609211  0.4931520862480729
  0.0700908914906508  0.2381228919880858  0.4810417238886141
  0.3183334743738189  0.5805492281442729  0.3996877066533649
  0.4325216516000616  0.4177466437432538  0.4138777519799502
  0.1814608024125876  0.3973095228211612  0.4144186990229174
  0.0601843601531031  0.5766805602162502  0.3994352614363137
  0.3197947737273373  0.5895511647196889  0.4269656306860219
  0.4151526156996681  0.4250527766768222  0.4401291043010620
  0.1895925799232334  0.4144506815611563  0.4369622195180248
  0.0541551213030627  0.5912792021858880  0.4264051658747963
  0.3134763361326602  0.5757999087937676  0.4539135055253242
  0.4374921268371474  0.4057504833269830  0.4667775040433986
  0.1767777084928253  0.4345315902943748  0.4653464876145135
  0.0638699889922347  0.5813884713429759  0.4539384385953943
  0.3012077832214032  0.5942986333337558  0.4783070328360199
  0.4359079402724029  0.4189480042692380  0.4931471177009610
  0.1757097951055582  0.4195097017900247  0.4924908249628786
  0.0643904209555352  0.5762485416256670  0.4782709924212986
  0.3095320018244271  0.9143764731134433  0.3991952541910074
  0.4340212974035405  0.7487119859383248  0.4124549947630968
  0.1914033789658495  0.7404572480175720  0.4136777061191727
  0.0712973191931198  0.9080017931865513  0.4000991751272845
  0.3108498373106366  0.9236379135964633  0.4276757380541614
  0.4598515138965176  0.7421737668621116  0.4417766343459946
  0.1758871059147092  0.7467877742529949  0.4403234090894913
  0.0580873708703143  0.9042618859581578  0.4262785168908577
  0.3169374742599867  0.9155718631641162  0.4541420683791526
  0.4389293489091576  0.7521405004468750  0.4671212041796727
  0.1734239257150989  0.7506736423131767  0.4657863291038720
  0.0618771624721483  0.9004057251607195  0.4539887959247792
  0.3159445293028432  0.9166917126886398  0.4792140975784382
  0.4413507566640028  0.7500948673316409  0.4935578089118637
  0.1913751589715177  0.7395330183076158  0.4927324934491558
  0.0486723350885432  0.9103282833116492  0.4804612977584863
  0.8222571437545912  0.2486827519014436  0.4004875194939916
  0.9417204016451430  0.0816572773589483  0.4121376183565716
  0.6852383586764221  0.0678653196164805  0.4125587620179702
  0.5650073877038142  0.2591030379124565  0.3993692973237452
  0.8216463483393307  0.2577805082860444  0.4271156754637402
  0.9378866647444699  0.0912292773241177  0.4391656849317765
  0.6913431129044566  0.0733637607228266  0.4413663717086365
  0.5559619016298959  0.2493717098986944  0.4268972424815083
  0.8058344082676914  0.2485001162575019  0.4533158833070678
  0.9418598551825821  0.0678819246337630  0.4668460358964253
  0.6921420714318406  0.0875492411010599  0.4658557629856102
  0.5650178176828988  0.2532741409738632  0.4546486867184615
  0.8204172502532888  0.2555066759720749  0.4814544255825978
  0.9362835390187118  0.0719098799807069  0.4924261680058301
  0.6948721603286029  0.0914933596466420  0.4927956431586253
  0.5731384165387977  0.2379892902082011  0.4814182434939561
  0.8188972071144983  0.5607628015126002  0.3986894165981950
  0.9336929653890249  0.4208699880210446  0.4118393716052822
  0.6901735235852903  0.4197781172121018  0.4118279026742120
  0.5531956144745107  0.5806881737142395  0.3995117354985238
  0.8089589672428807  0.5951863877012833  0.4271569402284673
  0.9257035615770197  0.4145278195179891  0.4404188776156417
  0.6930250782364672  0.4143856494894500  0.4409340079396838
  0.5506752665753567  0.5760922539942160  0.4268662713305448
  0.8291163937013485  0.5755616168689461  0.4538055328102706
  0.9488380774723384  0.4026740362317718  0.4675212403145810
  0.6878100351756619  0.4209246096728320  0.4657269007689041
  0.5509474257857094  0.5850395174169909  0.4535529180017874
  0.8117432906914670  0.5854077776211623  0.4800341986199885
  0.9354144961566025  0.4314249586475908  0.4921219575375529
  0.6953382596132522  0.4133613855752827  0.4947716390716307
  0.5741184483548900  0.5918826129824200  0.4795493841615619
  0.8084147173071300  0.9084176108603679  0.3998170935901348
  0.9458149819859234  0.7578291356337672  0.4144265880547053
  0.6802776712418499  0.7518213349414578  0.4140787228939352
  0.5560752335147476  0.9205220087213207  0.3995542147743595
  0.8222757213468184  0.9165148694923878  0.4277363139876255
  0.9302203102004272  0.7520199300301460  0.4391554857010597
  0.6990026370351445  0.7606971951208069  0.4403148007843756
  0.5727485461335589  0.9008120780976722  0.4279567670526875
  0.8262788020609210  0.9042635954790356  0.4537587951700735
  0.9458407239430131  0.7500999956472019  0.4670800183986530
  0.6968420270928878  0.7467461896744793  0.4661419921422770
  0.5728314790843946  0.9178779064619733  0.4530862694421309
  0.8232053622127034  0.9068789392882773  0.4810390518548897
  0.9315229471513968  0.7476785580566720  0.4946387258848892
  0.7029904265030822  0.7569704053465486  0.4935816108507956
  0.5859630983225091  0.9066478043349828  0.4804659246141320
  0.3115875682501918  0.2572581697162585  0.5062934266661203
  0.4353026742019450  0.0859678104235197  0.5211515487522080
  0.1882038187157113  0.0816270168189090  0.5202626178245333
  0.0757510700440293  0.2596908135329439  0.5074541232936995
  0.3130622415040830  0.2393108508718548  0.5341020563367083
  0.4410920512531367  0.0775418196456103  0.5456912314394599
  0.1874595652284423  0.0789315626080348  0.5473373577104378
  0.0638884140074367  0.2508562733451015  0.5329355205529251
  0.3028089875540017  0.2547368130984003  0.5600128406353663
  0.4471313494715031  0.0905415961966488  0.5731140792616843
  0.1822523501224485  0.0866219053076280  0.5722802043370872
  0.0579079766277088  0.2451943518926478  0.5596685606518779
  0.3182080043460269  0.2568714591390523  0.5876465209593620
  0.4375950801275588  0.0743649425912263  0.5993322913479769
  0.1888936223581311  0.0796045876247305  0.6002507634489463
  0.0573412864551037  0.2427383119738157  0.5859926642201145
  0.3119955398812204  0.5840163613202295  0.5074810542044897
  0.4423047450960274  0.4064273464200997  0.5199735766724665
  0.1808990193966415  0.4006027593013555  0.5205148418126906
  0.0446749204562108  0.5741253013220738  0.5057059819642707
  0.3269177378043414  0.5850118226956071  0.5327413166301675
  0.4362455100687289  0.4256456097031128  0.5475874343352591
  0.1823203328542410  0.4181378004144232  0.5472425387631868
  0.0626019191597687  0.5810427681833313  0.5351464952060528
  0.3085190152344414  0.5662038708874528  0.5592253279796550
  0.4327595510953074  0.4176533953530306  0.5737156795452819
  0.1872540720414568  0.4260557734836256  0.5732824989950684
  0.0746091043876157  0.5897148610070096  0.5598640431171900
  0.3049371351618015  0.5846389694717959  0.5870501544516561
  0.4438454907241796  0.4147006484769672  0.6001202119619884
  0.1859819418766594  0.4196515726963341  0.5995505813274744
  0.0631317572855651  0.5775757258750858  0.5855984884279203
  0.3221236390905383  0.9056216701382108  0.5071177345152927
  0.4506133211763152  0.7456690074800467  0.5198094673693546
  0.1915763894323116  0.7417673295911382  0.5201390493169534
  0.0675823192766494  0.9066447322925832  0.5066973324221122
  0.3032062105412578  0.9244828816256803  0.5341408059422693
  0.4309018063150059  0.7576107061277776  0.5473798716099489
  0.1843411841050082  0.7492131915335674  0.5472685790954195
  0.0553850836040104  0.9142944187467479  0.5339792301145335
  0.3096646965490656  0.9125578323584408  0.5606189081679102
  0.4311864344459716  0.7411079517516451  0.5731071500558051
  0.1855849165407100  0.7585590263778322  0.5719626344949917
  0.0640666392304993  0.9110660421563009  0.5602428923693360
  0.3062154473749500  0.9318296090915006  0.5866172614732355
  0.4391522145591740  0.7467218028672092  0.6007561508097888
  0.1917261786073160  0.7477919117652762  0.6006545814380191
  0.0583643412652122  0.9219686573819263  0.5871460621570248
  0.8062145291174950  0.2300034918322869  0.5084750064893510
  0.9484925555012275  0.0840186777056455  0.5209280967900284
  0.6861461182498373  0.0830983235172938  0.5192896588130008
  0.5605721039141419  0.2454096992537250  0.5073633737460157
  0.8236091113036790  0.2447883099373965  0.5327371845403873
  0.9467597789915998  0.0898453490167240  0.5460997556901256
  0.6897772696368503  0.0907381695748488  0.5473199268506903
  0.5479848150932469  0.2404883189548414  0.5336491504950651
  0.8074680688782536  0.2495852273872185  0.5613942259006407
  0.9338064945757699  0.0823616321349014  0.5722014927508940
  0.7059229820839548  0.0712227351649009  0.5729568244761043
  0.5613659423758578  0.2475264882243550  0.5612542183873637
  0.7964562691047290  0.2535621363836507  0.5857882449470092
  0.9430433655829331  0.0866174674494089  0.5992090074177014
  0.6749556984165209  0.0786932592629814  0.6006298245661943
  0.5544882283961099  0.2604257590473741  0.5864532334435514
  0.8009649160045728  0.5853133131958542  0.5072560113912221
  0.9325457937113367  0.4274551085624244  0.5188583421494372
  0.6878097118521337  0.4245914634342803  0.5199684825881408
  0.5610659788562139  0.5736278527086242  0.5054223357735377
  0.8181408089582726  0.5812290288724437  0.5327067426796140
  0.9501095151005008  0.4132612852654982  0.5454886495558954
  0.6982412054676833  0.4092622810850743  0.5459689395456536
  0.5676276041377099  0.5748456201547902  0.5329802627119784
  0.8084479092160028  0.5882454285443867  0.5606001397513664
  0.9332723906627779  0.4084304392947864  0.5731383303024734
  0.7013150208184422  0.4150959325737041  0.5727302308003550
  0.5609585978247554  0.5730737193345580  0.5615066972097469
  0.8107061074235372  0.5894009921832176  0.5866709047545973
  0.9384068171482250  0.4082876934230123  0.6011588564946574
  0.6954549691574388  0.4225517731085307  0.6009803166555278
  0.5742083145921014  0.5738666260401469  0.5880991565177650
  0.8135042129451563  0.9214898492224877  0.5079625356560233
  0.9382224233292130  0.7497258913177617  0.5201194620778051
  0.6971061320998494  0.7578912537893626  0.5205230100692705
  0.5541362474085822  0.9209726545887243  0.5070447928627900
  0.8202197433707342  0.9036083025686698  0.5353314092787476
  0.9433242950604559  0.7683606846822646  0.5467318842943346
  0.6857166806619662  0.7502873908512576  0.5454058522766406
  0.5654314772922477  0.9282145917629584  0.5345035272926262
  0.8052488059981141  0.9197691446433117  0.5609446947496662
  0.9405425577924459  0.7459539800422800  0.5736573065369633
  0.6894343571987531  0.7554453857832972  0.5736765157471722
  0.5545123369637336  0.9105798169954383  0.5589832435621940
  0.8119658557298024  0.9061166528600346  0.5870686058156762
  0.9500896684401318  0.7535044400540256  0.5999816843578063
  0.6851150387035038  0.7483689229386535  0.5987721792809692
  0.5690783600693783  0.9235780346848131  0.5864696058967818
