generated by phonopy
   1.0
    15.9923497217270576    0.0000000000000000    0.0000000000000000
     0.0000000000000000   16.9624484030100007    0.0000000000000000
     0.0000000000000000    0.0000000000000000  149.9856557282382141
Na Cl
 192  192
Direct
  0.1948494032905971  0.2604302296289501  0.4130997502417508
  0.4301815929067661  0.2428812779046751  0.4143527445473546
  0.3113742011023454  0.0906458646714821  0.3997442448552577
  0.0701203749625160  0.0838766010704458  0.3995488560030251
  0.1935752868291689  0.2282445933853907  0.4412481959875441
  0.4307348106445225  0.2596508479919296  0.4385498518461961
  0.3150990713546901  0.0758440172435483  0.4247461638934387
  0.0454983295101086  0.0734597679775496  0.4276039485206060
  0.1928207815598230  0.2559020922799587  0.4656296669568930
  0.4456771157154297  0.2485397720247240  0.4673863464747690
  0.3156456248541072  0.0804698983813815  0.4535452687277756
  0.0546258263173930  0.0907662782796413  0.4526725594143202
  0.1877714914820435  0.2449155348354457  0.4945583248421618
  0.4389603994984832  0.2597573978777185  0.4930492147628247
  0.3260287509120976  0.0738677487367975  0.4798672630708785
  0.0706514697304534  0.0691403656753255  0.4794638670609557
  0.1775901403868260  0.5774896722310029  0.4137212923591191
  0.4510045221463899  0.5846307740278294  0.4146620118605675
  0.3183703407101643  0.4257084060447914  0.3999370357396195
  0.0631457453958175  0.4121910658986490  0.4013430912305980
  0.1901707296786653  0.5961372836528865  0.4410355852594994
  0.4237688616040797  0.5929812920065749  0.4394541513640501
  0.3228895543260603  0.4071419586507493  0.4265099306094464
  0.0629342240223267  0.4047677688521562  0.4281864085557127
  0.1816787862966256  0.5836644908784396  0.4653041725155037
  0.4487611460397862  0.5917469827936418  0.4660887682507410
  0.3222044653137170  0.4200668990805562  0.4532193213843697
  0.0626509201813211  0.4118370378291389  0.4533499839569135
  0.1991631825410079  0.5882688387022035  0.4917318791617881
  0.4253552359157187  0.5859624196347907  0.4932642788974434
  0.2977478375825285  0.4195765253008111  0.4809616268586475
  0.0608001404111871  0.4163999909631961  0.4803152374355932
  0.2077757619379758  0.9220504583073199  0.4130253358908317
  0.4290901882482366  0.8985903018364544  0.4132032429909844
  0.2876620144968654  0.7350513222104046  0.4008535780301752
  0.0668970737272666  0.7512634118073368  0.4012160083330215
  0.1926910160811251  0.9224966748816784  0.4387268613884133
  0.4371714442737890  0.9047014111550621  0.4408480571241408
  0.3141832734179414  0.7576853065969149  0.4260744215254657
  0.0831659006924252  0.7482988114991593  0.4267727148310551
  0.1954505833250277  0.9227712480049851  0.4656953009274996
  0.4414221976530703  0.9160317351514217  0.4681085724025534
  0.3042171164930931  0.7510763989202534  0.4535978458719037
  0.0667856962259889  0.7418563951017830  0.4522724060457329
  0.1847177511913071  0.9244923727169257  0.4934093036334048
  0.4479126332899419  0.8927648625927094  0.4942484813949623
  0.3094310133044380  0.7492896329660600  0.4794862975893830
  0.0596225671206499  0.7551445259214367  0.4796385841383216
  0.6953259276625485  0.2441544611479901  0.4119586448521805
  0.9206307020759291  0.2676715843713537  0.4130401769294559
  0.8137548992104057  0.0748080247511492  0.3996275067866663
  0.5523360462962495  0.0878224077788757  0.4004815022767191
  0.6935101977031876  0.2483821553637778  0.4395616589197099
  0.9332843564286210  0.2491100827064236  0.4398097112765579
  0.8053188055419429  0.0840132675354652  0.4257604434550463
  0.5803744688432971  0.0975580747121164  0.4269765308598857
  0.7050429084852834  0.2602067506234715  0.4674429976134283
  0.9412610558156276  0.2381640996989465  0.4671296176831479
  0.7978872347479981  0.0722819063357997  0.4530510858267716
  0.5678866920393778  0.0805215235399961  0.4534332361756478
  0.6914042904679860  0.2509893127334667  0.4938508111449805
  0.9240277775945345  0.2755554413643182  0.4945325344263015
  0.8138724984766497  0.0826906165690884  0.4795115821121135
  0.5712615122770954  0.0663498970012401  0.4805481718389262
  0.6797595583328603  0.5914208174546972  0.4145351177290842
  0.9320403877897079  0.5729677474882026  0.4142098212933917
  0.7996479624368625  0.4223182407850021  0.4005010807978544
  0.5677755507413117  0.4109975269138442  0.4008724931875188
  0.6904850052726804  0.5786346365768478  0.4411592302297659
  0.9462323814794532  0.5791880368598695  0.4409223581905664
  0.8077188491356095  0.3986753878354978  0.4258945886882729
  0.5508650258062225  0.4207726063853282  0.4264890875790254
  0.6796427751789944  0.5849553921449619  0.4692665371376864
  0.9329167706549650  0.5845221949644774  0.4661423853718543
  0.8225514529560374  0.4046025989156718  0.4530233840548671
  0.5638577527807026  0.4189345995523449  0.4547205164890000
  0.6880222365069183  0.5694398603802261  0.4931996354086073
  0.9321800020571428  0.5844874390258196  0.4929449991636423
  0.8181895334412466  0.4222273796625001  0.4785191732384408
  0.5560928406705065  0.4216977299480558  0.4793781255770753
  0.7013588856649300  0.8994376971042044  0.4135292515095072
  0.9425264630406959  0.9146087852291099  0.4129942136028055
  0.8052557020137664  0.7515209709812085  0.4003634536498504
  0.5526397337435461  0.7620334668001950  0.4003315221762253
  0.6911880937151492  0.9129650110660127  0.4397303161335686
  0.9315542652746359  0.9137561287483399  0.4398964517056361
  0.8204240857040149  0.7494412856853854  0.4269529719076234
  0.5599422765532380  0.7460698255576518  0.4262255873005635
  0.6855295445912226  0.9054571450055929  0.4661419061046788
  0.9543062470407916  0.9040870553839072  0.4667064455003296
  0.8026396899504458  0.7441203972314655  0.4534198214449309
  0.5657854848753765  0.7542865001746825  0.4529235825023978
  0.6846620447370746  0.9061881303349681  0.4924085982539783
  0.9404046388770551  0.9235188932566043  0.4918014425470012
  0.8210759879322097  0.7499854911597753  0.4800881959060785
  0.5663559496405240  0.7424314793306356  0.4802924671281984
  0.1983780216355367  0.2403295171153986  0.5195242210009982
  0.4255966001906163  0.2420594512185840  0.5197118983112458
  0.3281320151871050  0.0842937201565622  0.5068940939360458
  0.0536167522216275  0.0979355731152810  0.5073462419315001
  0.1930950009094281  0.2378604357308979  0.5468432683976758
  0.4444417049005615  0.2534987147842719  0.5465013142359944
  0.3277542251551847  0.0778931446340613  0.5304132647007466
  0.0611519586887119  0.0885014820045973  0.5343745854464339
  0.1841354664820231  0.2704468746786733  0.5735236208746606
  0.4214838811203803  0.2602027210385454  0.5743323670706482
  0.3121975555313388  0.0687234534161986  0.5617245558338838
  0.0600522629247539  0.0951275427598659  0.5610235082695498
  0.1865370650219293  0.2479073716281991  0.5989306699752880
  0.4436053349524979  0.2608164662665295  0.5999173533715479
  0.3156125004984209  0.0868042492964148  0.5873577136552643
  0.0708371403629296  0.0818968537304364  0.5877157211188716
  0.1808064524296140  0.5833112316739879  0.5211445957021907
  0.4305719604102822  0.5775223051046139  0.5186000962248549
  0.2965114484111633  0.4204481220166815  0.5060889384437155
  0.0636255196001691  0.4142198771357293  0.5056258729128844
  0.1902635463595415  0.5835286389147961  0.5465650887736513
  0.4440650055031934  0.5771518354149864  0.5467104492214162
  0.3118273443263758  0.4236819662628034  0.5339092517419671
  0.0684755009888453  0.4210622963818439  0.5337070790337473
  0.1935607778023175  0.5917754200497233  0.5742761689209372
  0.4406115135230689  0.5809790718395257  0.5741544443972928
  0.3066293559993217  0.4065165041710796  0.5596558201079559
  0.0576807365594405  0.4229028877011697  0.5604481877158151
  0.1794730657339415  0.5893294022629232  0.5998918344963337
  0.4305089426047702  0.5828803604014987  0.5982035642452931
  0.3043628161379398  0.4100063627850796  0.5868672218019988
  0.0489504408428619  0.4100947373716902  0.5859192704231433
  0.1907004785075932  0.9164465856880696  0.5188981521236891
  0.4350352910018920  0.9277283727514515  0.5194550536271785
  0.3150457854010195  0.7491693364152784  0.5074153654917161
  0.0479878843373436  0.7523354732356405  0.5058344349559569
  0.1849701194144345  0.9181540635934160  0.5450121589308403
  0.4375572806254686  0.9277632237855026  0.5463987661492878
  0.3282701693739391  0.7481982170447223  0.5324684841534600
  0.0742668855343924  0.7533168563749637  0.5339119892477209
  0.1772426617027210  0.9359428551231840  0.5717216362276960
  0.4312027869759939  0.9269352719019189  0.5744673658246678
  0.2895628605397029  0.7469431829658238  0.5592205562708705
  0.0591055504368212  0.7407997934830772  0.5595337426662300
  0.1921478320880720  0.9160208709969019  0.6021464573469103
  0.4330928850738853  0.9238272887146054  0.5998704824121928
  0.2974655025328383  0.7520370759711081  0.5860685725801484
  0.0680589535972357  0.7344934737470310  0.5847897442437818
  0.6794267484738344  0.2594707658679322  0.5210056886952372
  0.9468424007318927  0.2484689930507093  0.5205129008004996
  0.8257505762069403  0.0931507972388105  0.5072892862833274
  0.5631100582702285  0.0810712915303923  0.5069254937847421
  0.6929978296103717  0.2570906946498752  0.5453581468128135
  0.9337696165923232  0.2551048515963376  0.5456775320879726
  0.8019228733027869  0.0722513677570360  0.5322064503888412
  0.5637326922649875  0.0732830161688901  0.5329876323886336
  0.6844552770114491  0.2269471584010107  0.5718221506950564
  0.9340536649305935  0.2504766988755369  0.5731459650216260
  0.8082446575172744  0.0996940121174603  0.5593566616412740
  0.5692058627492637  0.0845792120099203  0.5602104372188281
  0.6824923982749155  0.2622141348699403  0.5993352831912037
  0.9501555220818331  0.2468886498208343  0.6013842713261546
  0.8056356975407615  0.0830197409560219  0.5866377609214245
  0.5414216074365878  0.0799253889685673  0.5885397935071804
  0.6930928769440612  0.5762134819527626  0.5194081957727851
  0.9380782407775273  0.5865000255173799  0.5204894038429965
  0.8097235586688853  0.4089058828781911  0.5066340174429607
  0.5693525980543453  0.4142222725293847  0.5072408674823690
  0.6808853526881457  0.5641986011408571  0.5461167933699710
  0.9278871209673930  0.5776508723191591  0.5463384573446833
  0.8090182235006035  0.4080483104267982  0.5332017461294388
  0.5733108514055207  0.4223923251475024  0.5322856991635955
  0.6892141848244080  0.5890815138293305  0.5743208708181698
  0.9297432151205189  0.5863312764362725  0.5728393392911862
  0.8206770402422141  0.4193372464044038  0.5594865918269899
  0.5581195709120527  0.4160580351220713  0.5597886748517215
  0.6982563485627217  0.5932517081654449  0.6005356542788500
  0.9373500345897960  0.5907844698306881  0.6017724993968038
  0.8222715712517346  0.4040570245662264  0.5865106596284680
  0.5568120929599588  0.4035254250667933  0.5872936203140299
  0.6973659444512091  0.9217476095681379  0.5177442366199564
  0.9368701261671626  0.9217278890237264  0.5203171491448035
  0.8186833430430811  0.7485824265911273  0.5078582872959887
  0.5624560632290230  0.7503238032451481  0.5071010098891102
  0.6777670291050309  0.9188499929834243  0.5461765175212772
  0.9313328040320767  0.9212898225418363  0.5484061515288543
  0.8171653875307017  0.7484182727258584  0.5351226864367689
  0.5659674021130344  0.7474809245734776  0.5341929089109387
  0.7016583205226528  0.9199500338702415  0.5747525624804801
  0.9390118043288460  0.9139474253205108  0.5724809469434500
  0.8232016528439271  0.7458649114569574  0.5597200751670894
  0.5535697324083785  0.7373459182630518  0.5599865153136797
  0.6952944483434297  0.9141068704264811  0.5994876462400853
  0.9366658010715916  0.9342635223108933  0.6000379101751001
  0.8035418529752847  0.7414001990016426  0.5847579675583533
  0.5639301277508119  0.7538305961689366  0.5839326142430761
  0.3296533809707026  0.2467016883247948  0.4007792601238271
  0.4381667981717466  0.0711280807684266  0.4144443127934547
  0.1939282005165572  0.0594546877328500  0.4129713313024744
  0.0602470453174061  0.2437445806770782  0.4012748949093019
  0.3090989330198287  0.2474531999837949  0.4261728208687517
  0.4347865981380054  0.0814374549140882  0.4400349094430785
  0.1857865840007393  0.0738762576880935  0.4387473826471583
  0.0653157423774859  0.2478802815202502  0.4264521512953284
  0.3117865512281113  0.2394946779534585  0.4527715203367336
  0.4277677810418815  0.0817370839165244  0.4689783821197913
  0.1772910623962827  0.0801218266217027  0.4680578319773498
  0.0659379899214286  0.2534103850001097  0.4537108348471829
  0.3101534254524340  0.2438277454417126  0.4800604541393579
  0.4492133573210177  0.0820894531973410  0.4942974356955218
  0.1844155047233654  0.0826011960429633  0.4949410828688323
  0.0550650939421682  0.2464976289845394  0.4798700713887548
  0.3126084243496620  0.5788379360324376  0.3993827367244519
  0.4245918541576402  0.4053345479369292  0.4126938486475738
  0.2021288568869584  0.4209358788063470  0.4120003443750254
  0.0524202697458933  0.5839649709901348  0.3994784367126052
  0.2937133096953060  0.5744141470999032  0.4267113630875762
  0.4464927864353199  0.4115172638669397  0.4388900379526194
  0.1857671085334842  0.4312908016687365  0.4400827736691251
  0.0573855901643632  0.5781254927673827  0.4274457391374414
  0.3070268860041643  0.5880809789609958  0.4534467127334698
  0.4337864475852611  0.4123149161181515  0.4665958293955643
  0.1896918637734973  0.4201676982206893  0.4665731747819145
  0.0704086183536804  0.5790220679463870  0.4532724343571978
  0.3153858816865282  0.5950859089865048  0.4783480686970213
  0.4345490373404611  0.4158344459772402  0.4949634292969974
  0.1928396521931151  0.4220614836628063  0.4941381747361922
  0.0613014466696803  0.5840900707916534  0.4797915815903022
  0.3116743077066272  0.9126947864156479  0.4004139631843168
  0.4563574543642425  0.7303620203516720  0.4138999390497924
  0.1925188840390319  0.7476746354266106  0.4139090691192925
  0.0581123357328151  0.9237072642728125  0.4009228619422198
  0.3149381757369657  0.9203840567115353  0.4268044671507551
  0.4368872765818497  0.7447025738636103  0.4392126203789693
  0.1745746220385387  0.7600746914533820  0.4407137129413870
  0.0752093708234316  0.9232148954663905  0.4257637133805334
  0.3053270852332123  0.9169206439506673  0.4534636108257569
  0.4399371654674114  0.7390785282144354  0.4658555980139798
  0.1785255628737246  0.7580627689824248  0.4671071858134880
  0.0540353835125756  0.9049149615865629  0.4533904982002280
  0.3103685154977189  0.9162743553167068  0.4799675558777912
  0.4341133283709728  0.7560607048070946  0.4942987072835360
  0.1841127266817270  0.7435648640005037  0.4938592621532979
  0.0688191789909011  0.9207591911266824  0.4793547262811876
  0.8118552675525701  0.2517686680161058  0.3999215909972242
  0.9469113357306759  0.0946161658558113  0.4134520568389458
  0.6850733015494549  0.0759221755541836  0.4117878817786886
  0.5673556988341625  0.2531655892531821  0.4001005042392819
  0.8161545493649953  0.2561759305552622  0.4279695634067952
  0.9312401010269079  0.0901109449592239  0.4410895945173338
  0.7105013084652874  0.0805669573955448  0.4403940377612490
  0.5625693315607390  0.2432748032856887  0.4272161119408990
  0.8065256735048354  0.2463809607732262  0.4531098966234007
  0.9388138533423244  0.0842097269858703  0.4663965045219122
  0.6936156100251373  0.0782813925501863  0.4676609309988731
  0.5561679640070752  0.2369025620175618  0.4538517645076627
  0.8055480004596692  0.2394788126158158  0.4803043036812350
  0.9452175658287021  0.0987080806511358  0.4933565220972008
  0.6948145444486068  0.0753596816918369  0.4939133127409716
  0.5619200183884985  0.2410878108548492  0.4801756672138738
  0.8164922447170717  0.5811623999448404  0.3999463149405426
  0.9447082907400693  0.4140054086932740  0.4135214067880760
  0.6937134270394816  0.4167732702563709  0.4142183059318789
  0.5712404412734530  0.5905483152462037  0.3994348209655379
  0.8200107771382948  0.5797051027964033  0.4277559590736462
  0.9440960291877153  0.4159912822739701  0.4390916617985856
  0.6892565407889413  0.4261683023000897  0.4412140398558355
  0.5503229520148518  0.5717251665134065  0.4262561988024443
  0.8090559328541306  0.5783718508898915  0.4529248255271215
  0.9256751733985474  0.4133815284486573  0.4675402710166437
  0.6765907166131939  0.4141492175251006  0.4677543625650143
  0.5548072779039466  0.5906522042179438  0.4551235461064195
  0.7951189321782288  0.5864246811958257  0.4793856832250190
  0.9318666312099455  0.4052906793120198  0.4941161785188053
  0.6894308772778701  0.4208493362884879  0.4948970031049027
  0.5624504649879773  0.5911829735543608  0.4803653865510099
  0.8161248767442074  0.9055931828088044  0.3995057176354725
  0.9446932184594061  0.7413883693982817  0.4124939501236995
  0.6905593540770222  0.7561469038395152  0.4135907460259722
  0.5601836650541061  0.9080634483835124  0.4001604620817695
  0.8166775617435570  0.9222330656203014  0.4261164461233931
  0.9367002711333454  0.7559356778644597  0.4401473461347186
  0.6861873010018712  0.7505915314492760  0.4396748360153035
  0.5643513947807515  0.9147748643917549  0.4275009169567432
  0.8239130195800134  0.9081067881638337  0.4528536596668030
  0.9328936096954913  0.7472884055972464  0.4663515259333272
  0.6962808641686072  0.7495646702284577  0.4658216657191173
  0.5565478835949708  0.9194366858780730  0.4521120566014996
  0.8062538241073735  0.9100696712802379  0.4805536583751004
  0.9435089202491326  0.7515537995361018  0.4927431681717264
  0.6820166249080465  0.7313335271865407  0.4939648298889734
  0.5654034941999536  0.9176912087293683  0.4792038994902530
  0.3040128710636941  0.2572797262825788  0.5074950706830136
  0.4418721643049673  0.0878241594667638  0.5204880113950073
  0.1919207937475957  0.0964493476407878  0.5194619793557875
  0.0800257322722674  0.2353246926954370  0.5067634765175623
  0.3139513979198841  0.2570346327311407  0.5328969695243267
  0.4265198267649528  0.0726313680694811  0.5462423366813562
  0.1988909431985994  0.0770405553569640  0.5478290483774210
  0.0621817859096116  0.2389350865869907  0.5330633790556060
  0.3083857966231929  0.2360465523809898  0.5599645596786742
  0.4321746825931030  0.0732451176898622  0.5716079285006792
  0.1867621685459619  0.0863219366631007  0.5721538331870326
  0.0608014416253284  0.2458321547177535  0.5600983089920963
  0.3280449517083154  0.2530021705653462  0.5869686936115036
  0.4363009329160484  0.0820073014292441  0.5991597706137809
  0.1971534072175554  0.0961272479044241  0.5982342474782892
  0.0720519386040569  0.2330308336869913  0.5854069364452333
  0.3143597447040409  0.5968889738628210  0.5078901594573202
  0.4328960518596617  0.4033624891033779  0.5197655175187211
  0.1831362085631114  0.4150431418925691  0.5198676654585666
  0.0690897816826556  0.5838315827905499  0.5059551270780974
  0.2975810837058650  0.5881601207292994  0.5343437017239767
  0.4423476329836701  0.4247124221388962  0.5473171392225712
  0.1748986658233508  0.4026774570304861  0.5451819712193260
  0.0564930094425869  0.5919747382367530  0.5319974303892916
  0.3088408833407577  0.5788891219513611  0.5607593027013534
  0.4339160756281654  0.4249198882221958  0.5744384255981660
  0.1879969794186496  0.4200031535419052  0.5726196491888677
  0.0650505837737537  0.5769343032756856  0.5589482057934794
  0.3085420909371346  0.5881063296797678  0.5870769970149472
  0.4476685417298377  0.4059795872359460  0.5977466581024079
  0.1932245758415509  0.4134746626365607  0.6001909092725747
  0.0569495767396504  0.5904437226124783  0.5862971939017905
  0.3115120975388309  0.9180733220043474  0.5065275911910210
  0.4393193789961534  0.7615305118779776  0.5215484413852364
  0.1877154528088093  0.7588984945300615  0.5190947109779724
  0.0576257967174059  0.9161575946179861  0.5071004757307418
  0.3217180758470866  0.9136952332164247  0.5338540519661881
  0.4405700295769993  0.7404045998697167  0.5466891516124377
  0.1954701420690562  0.7322139462512267  0.5462304356249585
  0.0578188408966817  0.9082877426178576  0.5332912727739951
  0.3136633258575778  0.9068276650821758  0.5587746630895898
  0.4420727050244307  0.7359283986610413  0.5732032961032042
  0.1915534446430354  0.7615275206556812  0.5720062702612000
  0.0807868731280837  0.9161514202256482  0.5584141047502845
  0.3208864635069030  0.9232736209346118  0.5870566214538210
  0.4224414340312425  0.7424453417352868  0.5996615222651553
  0.1804619376998108  0.7359811838516802  0.5999074680296598
  0.0730255123355004  0.9143004262280031  0.5869701820818237
  0.8207782069628511  0.2553087747722888  0.5069697509887994
  0.9417376989880110  0.0816875728185430  0.5185040836301162
  0.6835344658129501  0.0838118502219518  0.5196371960920345
  0.5671243757581130  0.2681724950720488  0.5063803649767070
  0.8058439574929868  0.2484271042987075  0.5327865582990761
  0.9379575492059264  0.0860150045321304  0.5476428010200047
  0.6809051616119068  0.0772998385466233  0.5474028720132764
  0.5566078703588780  0.2582486640044943  0.5320053716794820
  0.8085854013816074  0.2551025218690159  0.5597267001118315
  0.9371981317134328  0.0931134056423861  0.5732166764710410
  0.6919649674752061  0.0801814090465614  0.5725418907224192
  0.5613621944551770  0.2616286810704602  0.5606936076798181
  0.8063161095431647  0.2561608567275429  0.5868567619250475
  0.9373174739829234  0.0810180710532195  0.5990830890578942
  0.6770896402242037  0.0733348710498632  0.6000028015880535
  0.5737235333571986  0.2431476425166344  0.5869472908896163
  0.8158829736744104  0.5689650624791672  0.5059758247337891
  0.9356484358703976  0.4170041808885826  0.5203450761693001
  0.6898849077198309  0.4137534182002061  0.5209405752222949
  0.5666899100002021  0.5857617433186362  0.5044082707098223
  0.8172164493539356  0.5797631522747401  0.5322144712588426
  0.9325165809181024  0.4084304006416936  0.5461097764872090
  0.6935258388282711  0.4138311157484054  0.5478152429195193
  0.5589284555649257  0.5961871584413321  0.5338546142407694
  0.8214046728538901  0.5817395740761432  0.5607375318110714
  0.9392909509845949  0.4111549425128219  0.5731576939034766
  0.6820564756975918  0.4147973341373932  0.5737117641887819
  0.5605952556724055  0.5689616162045509  0.5604839249125803
  0.8152072731573666  0.5788176681953709  0.5865424376923859
  0.9189893124490398  0.4062326015967338  0.5996859396312264
  0.6896400772676295  0.4165537760539594  0.5999979206557302
  0.5585036051878445  0.5850412116742895  0.5855906949713859
  0.8063263040178642  0.9031754274606888  0.5060975828379281
  0.9394557388305834  0.7365650107073445  0.5203800873368981
  0.7046700838455275  0.7636565962585706  0.5188572351853264
  0.5585923840516923  0.9232401245157681  0.5069547251084298
  0.8098290231698483  0.9167054055450545  0.5315203639283017
  0.9299210332773959  0.7509147974768294  0.5458696449046576
  0.6828540309822287  0.7384941584585130  0.5459868346209646
  0.5615004811860225  0.9156362716252711  0.5334442675155679
  0.8158782193277185  0.9204417956474105  0.5603557186828857
  0.9333015442887381  0.7484595765204014  0.5731345548936776
  0.6994160336529490  0.7480732013026995  0.5727021280992035
  0.5627643177994996  0.9149211923730199  0.5596888805270065
  0.8170263225405572  0.9117120407548029  0.5872610817090389
  0.9502138992163606  0.7530481071307213  0.6002650064964572
  0.7028906667522650  0.7423101815329781  0.6008754476524488
  0.5739012867561935  0.9241223299682779  0.5865304727535682
