generated by phonopy
   1.0
     3.2116684448278701    0.0000000000000000   -0.0000000000000000
    -1.6058342224139299    2.7813864617509600   -0.0000000000000000
    -0.0000000000000000   -0.0000000000000000    5.2024426299522899
Zr
   2
Direct
  0.0000000000000000  0.0000000000000000  0.0000000000000000
  0.6666666666666601  0.3333333333333400  0.5000000000000000
