Cesium Lead Bromide
   1.00000000000000
     8.4965326305367253    0.0000000000000000   -0.0000000000000003
     0.0000000000000000   11.8727818164578736    0.0000000000000000
    -0.0000000000000001    0.0000000000000000    8.2653566531484728
   Pb   Cs   Br
     4     4    12
Direct
 -0.0000000000000000  0.5000000000000000  0.0000000000000000
  0.5000000000000000  0.5000000000000000  0.5000000000000000
 -0.0000000000000000 -0.0000000000000000  0.0000000000000000
  0.5000000000000000 -0.0000000000000000  0.5000000000000000
  0.5545227547470244  0.2500000000000000  0.0146848333124844
  0.4454772752529780  0.7500000000000000  0.9853151696875123
  0.9454772452529756  0.7500000000000000  0.5146848303124877
  0.0545227247470220  0.2500000000000000  0.4853151696875123
  0.2920702544125876  0.4633616631893483  0.2058122381385025
  0.7079297155874169  0.5366383658106576  0.7941877618615045
  0.2079297455874053  0.5366383658106576  0.7058122381384955
  0.7920702844125831  0.4633616631893483  0.2941877618614975
  0.7079297155874169  0.9633616341893424  0.7941877618615045
  0.2920702544125876  0.0366383368106517  0.2058122381385025
  0.7920702844125831  0.0366383368106517  0.2941877618614975
  0.2079297455874053  0.9633616341893424  0.7058122381384955
  0.0129824775063844  0.7500000000000000  0.0705391557060672
  0.9870175044936140  0.2500000000000000  0.9294608632939307
  0.4870175344936166  0.2500000000000000  0.5705391367060693
  0.5129824955063860  0.7500000000000000  0.4294608332939354
