 Cs Pb Br
   1.0
     8.3922951200000000    0.0000000000000000    0.0000000000000000
     0.0000000000000000   11.6285966999999992    0.0000000000000000
     0.0000000000000000    0.0000000000000000    7.9434124199999996
 Cs Pb Br
   4   4  12
Direct
   0.4307451100000000  0.2500000000000000  0.5237399700000001
   0.0692548900000000  0.7500000000000000  0.0237399700000000
   0.9307451100000000  0.2500000000000000  0.9762600299999999
   0.5692548900000001  0.7500000000000000  0.4762600300000000
   0.0000000000000000  0.5000000000000000  0.5000000000000000
   0.5000000000000000  0.0000000000000000  0.0000000000000000
   0.5000000000000000  0.5000000000000000  0.0000000000000000
   0.0000000000000000  0.0000000000000000  0.5000000000000000
   0.9882350700000000  0.7500000000000000  0.5771257200000000
   0.5117649300000000  0.2500000000000000  0.0771257200000000
   0.2008839900000000  0.0389091100000000  0.8043289100000000
   0.7991160100000000  0.9610908900000000  0.1956710900000000
   0.2991160100000000  0.9610908900000000  0.3043289100000000
   0.7008839900000000  0.0389091100000000  0.6956710900000000
   0.2991160100000000  0.5389091100000001  0.3043289100000000
   0.7008839900000000  0.4610908900000000  0.6956710900000000
   0.7991160100000000  0.5389091100000001  0.1956710900000000
   0.2008839900000000  0.4610908900000000  0.8043289100000000
   0.4882350700000000  0.7500000000000000  0.9228742800000000
   0.0117649300000000  0.2500000000000000  0.4228742800000000
