generated by phonopy
   1.0
     9.6350053344836102    0.0000000000000000    0.0000000000000000
    -4.8175026672417900    8.3441593852528797    0.0000000000000000
     0.0000000000000000    0.0000000000000000   10.4048852599045798
Zr
  36
Direct
  0.0036043117238731  0.0112600632785609  0.9991764198143639
  0.3362787406483155  0.0096742869577968  0.9952931775276596
  0.6666666666666666  0.0000000000000000  0.0000000000000000
  0.0000000000000000  0.3333333333333333  0.0000000000000000
  0.3333333333333333  0.3333333333333333  0.0000000000000000
  0.6666666666666667  0.3333333333333333  0.0000000000000000
  0.0000000000000000  0.6666666666666666  0.0000000000000000
  0.3333333333333333  0.6666666666666666  0.0000000000000000
  0.6666666666666666  0.6666666666666666  0.0000000000000000
  0.0000000000000000  0.0000000000000000  0.5000000000000000
  0.3333333333333333  0.0000000000000000  0.5000000000000000
  0.6666666666666666  0.0000000000000000  0.5000000000000000
  0.0000000000000000  0.3333333333333333  0.5000000000000000
  0.3333333333333333  0.3333333333333333  0.5000000000000000
  0.6666666666666667  0.3333333333333333  0.5000000000000000
  0.0000000000000000  0.6666666666666666  0.5000000000000000
  0.3333333333333333  0.6666666666666666  0.5000000000000000
  0.6666666666666666  0.6666666666666666  0.5000000000000000
  0.2222222222222200  0.1111111111111133  0.2500000000000000
  0.5555555555555532  0.1111111111111133  0.2500000000000000
  0.8888888888888865  0.1111111111111133  0.2500000000000000
  0.2222222222222200  0.4444444444444466  0.2500000000000000
  0.5555555555555532  0.4444444444444466  0.2500000000000000
  0.8888888888888867  0.4444444444444466  0.2500000000000000
  0.2222222222222200  0.7777777777777800  0.2500000000000000
  0.5555555555555532  0.7777777777777800  0.2500000000000000
  0.8888888888888867  0.7777777777777800  0.2500000000000000
  0.2222222222222200  0.1111111111111133  0.7500000000000000
  0.5555555555555532  0.1111111111111133  0.7500000000000000
  0.8888888888888865  0.1111111111111133  0.7500000000000000
  0.2222222222222200  0.4444444444444466  0.7500000000000000
  0.5555555555555532  0.4444444444444466  0.7500000000000000
  0.8888888888888867  0.4444444444444466  0.7500000000000000
  0.2222222222222200  0.7777777777777800  0.7500000000000000
  0.5555555555555532  0.7777777777777800  0.7500000000000000
  0.8888888888888867  0.7777777777777800  0.7500000000000000
