generated by phonopy
   1.0
     9.6350053344836102    0.0000000000000000    0.0000000000000000
    -4.8175026672417900    8.3441593852528797    0.0000000000000000
     0.0000000000000000    0.0000000000000000   10.4048852599045798
Zr
  36
Direct
  0.0080416133828703  0.0138906019514856  0.9982401978525434
  0.3328757552124984  0.9893653815496387  0.9940757997404881
  0.6666666666666666  0.0000000000000000  0.0000000000000000
  0.0000000000000000  0.3333333333333333  0.0000000000000000
  0.3333333333333333  0.3333333333333333  0.0000000000000000
  0.6666666666666667  0.3333333333333333  0.0000000000000000
  0.0000000000000000  0.6666666666666666  0.0000000000000000
  0.3333333333333333  0.6666666666666666  0.0000000000000000
  0.6666666666666666  0.6666666666666666  0.0000000000000000
  0.0000000000000000  0.0000000000000000  0.5000000000000000
  0.3333333333333333  0.0000000000000000  0.5000000000000000
  0.6666666666666666  0.0000000000000000  0.5000000000000000
  0.0000000000000000  0.3333333333333333  0.5000000000000000
  0.3333333333333333  0.3333333333333333  0.5000000000000000
  0.6666666666666667  0.3333333333333333  0.5000000000000000
  0.0000000000000000  0.6666666666666666  0.5000000000000000
  0.3333333333333333  0.6666666666666666  0.5000000000000000
  0.6666666666666666  0.6666666666666666  0.5000000000000000
  0.2222222222222200  0.1111111111111133  0.2500000000000000
  0.5555555555555532  0.1111111111111133  0.2500000000000000
  0.8888888888888865  0.1111111111111133  0.2500000000000000
  0.2222222222222200  0.4444444444444466  0.2500000000000000
  0.5555555555555532  0.4444444444444466  0.2500000000000000
  0.8888888888888867  0.4444444444444466  0.2500000000000000
  0.2222222222222200  0.7777777777777800  0.2500000000000000
  0.5555555555555532  0.7777777777777800  0.2500000000000000
  0.8888888888888867  0.7777777777777800  0.2500000000000000
  0.2222222222222200  0.1111111111111133  0.7500000000000000
  0.5555555555555532  0.1111111111111133  0.7500000000000000
  0.8888888888888865  0.1111111111111133  0.7500000000000000
  0.2222222222222200  0.4444444444444466  0.7500000000000000
  0.5555555555555532  0.4444444444444466  0.7500000000000000
  0.8888888888888867  0.4444444444444466  0.7500000000000000
  0.2222222222222200  0.7777777777777800  0.7500000000000000
  0.5555555555555532  0.7777777777777800  0.7500000000000000
  0.8888888888888867  0.7777777777777800  0.7500000000000000
