generated by phonopy
   1.0
     9.6350053344836102    0.0000000000000000    0.0000000000000000
    -4.8175026672417900    8.3441593852528797    0.0000000000000000
     0.0000000000000000    0.0000000000000000   10.4048852599045798
Zr
  36
Direct
  0.0018506677401701  0.9900708650147713  0.0019195286393555
  0.3125733304410774  0.9943091460327786  0.9979364365516884
  0.6666666666666666  0.0000000000000000  0.0000000000000000
  0.0000000000000000  0.3333333333333333  0.0000000000000000
  0.3333333333333333  0.3333333333333333  0.0000000000000000
  0.6666666666666667  0.3333333333333333  0.0000000000000000
  0.0000000000000000  0.6666666666666666  0.0000000000000000
  0.3333333333333333  0.6666666666666666  0.0000000000000000
  0.6666666666666666  0.6666666666666666  0.0000000000000000
  0.0000000000000000  0.0000000000000000  0.5000000000000000
  0.3333333333333333  0.0000000000000000  0.5000000000000000
  0.6666666666666666  0.0000000000000000  0.5000000000000000
  0.0000000000000000  0.3333333333333333  0.5000000000000000
  0.3333333333333333  0.3333333333333333  0.5000000000000000
  0.6666666666666667  0.3333333333333333  0.5000000000000000
  0.0000000000000000  0.6666666666666666  0.5000000000000000
  0.3333333333333333  0.6666666666666666  0.5000000000000000
  0.6666666666666666  0.6666666666666666  0.5000000000000000
  0.2222222222222200  0.1111111111111133  0.2500000000000000
  0.5555555555555532  0.1111111111111133  0.2500000000000000
  0.8888888888888865  0.1111111111111133  0.2500000000000000
  0.2222222222222200  0.4444444444444466  0.2500000000000000
  0.5555555555555532  0.4444444444444466  0.2500000000000000
  0.8888888888888867  0.4444444444444466  0.2500000000000000
  0.2222222222222200  0.7777777777777800  0.2500000000000000
  0.5555555555555532  0.7777777777777800  0.2500000000000000
  0.8888888888888867  0.7777777777777800  0.2500000000000000
  0.2222222222222200  0.1111111111111133  0.7500000000000000
  0.5555555555555532  0.1111111111111133  0.7500000000000000
  0.8888888888888865  0.1111111111111133  0.7500000000000000
  0.2222222222222200  0.4444444444444466  0.7500000000000000
  0.5555555555555532  0.4444444444444466  0.7500000000000000
  0.8888888888888867  0.4444444444444466  0.7500000000000000
  0.2222222222222200  0.7777777777777800  0.7500000000000000
  0.5555555555555532  0.7777777777777800  0.7500000000000000
  0.8888888888888867  0.7777777777777800  0.7500000000000000
