generated by phonopy
   1.0
     9.6350053344836102    0.0000000000000000    0.0000000000000000
    -4.8175026672417900    8.3441593852528797    0.0000000000000000
     0.0000000000000000    0.0000000000000000   10.4048852599045798
Zr
  36
Direct
  0.0250819105497292  0.9939138942102236  0.9997578628810916
  0.3279003916818147  0.0017270044947394  0.9980343263020375
  0.6666666666666666  0.0000000000000000  0.0000000000000000
  0.0000000000000000  0.3333333333333333  0.0000000000000000
  0.3333333333333333  0.3333333333333333  0.0000000000000000
  0.6666666666666667  0.3333333333333333  0.0000000000000000
  0.0000000000000000  0.6666666666666666  0.0000000000000000
  0.3333333333333333  0.6666666666666666  0.0000000000000000
  0.6666666666666666  0.6666666666666666  0.0000000000000000
  0.0000000000000000  0.0000000000000000  0.5000000000000000
  0.3333333333333333  0.0000000000000000  0.5000000000000000
  0.6666666666666666  0.0000000000000000  0.5000000000000000
  0.0000000000000000  0.3333333333333333  0.5000000000000000
  0.3333333333333333  0.3333333333333333  0.5000000000000000
  0.6666666666666667  0.3333333333333333  0.5000000000000000
  0.0000000000000000  0.6666666666666666  0.5000000000000000
  0.3333333333333333  0.6666666666666666  0.5000000000000000
  0.6666666666666666  0.6666666666666666  0.5000000000000000
  0.2222222222222200  0.1111111111111133  0.2500000000000000
  0.5555555555555532  0.1111111111111133  0.2500000000000000
  0.8888888888888865  0.1111111111111133  0.2500000000000000
  0.2222222222222200  0.4444444444444466  0.2500000000000000
  0.5555555555555532  0.4444444444444466  0.2500000000000000
  0.8888888888888867  0.4444444444444466  0.2500000000000000
  0.2222222222222200  0.7777777777777800  0.2500000000000000
  0.5555555555555532  0.7777777777777800  0.2500000000000000
  0.8888888888888867  0.7777777777777800  0.2500000000000000
  0.2222222222222200  0.1111111111111133  0.7500000000000000
  0.5555555555555532  0.1111111111111133  0.7500000000000000
  0.8888888888888865  0.1111111111111133  0.7500000000000000
  0.2222222222222200  0.4444444444444466  0.7500000000000000
  0.5555555555555532  0.4444444444444466  0.7500000000000000
  0.8888888888888867  0.4444444444444466  0.7500000000000000
  0.2222222222222200  0.7777777777777800  0.7500000000000000
  0.5555555555555532  0.7777777777777800  0.7500000000000000
  0.8888888888888867  0.7777777777777800  0.7500000000000000
