generated by phonopy
   1.0
    22.0672575889613682    0.0745770766839898   -0.1007235269625169
     0.0750014839272797   22.0141858555725776   -0.0296379848901637
    -0.0986042179991162   -0.0284470126538516   21.6723455656945561
Si
 512
Direct
  0.5127526795597723  0.1969748881219874  0.1514687119428355
  0.5514632420713439  0.0980777384031575  0.2108262372854263
  0.6090166931698906  0.0547845603288975  0.6914901721572612
  0.2368838621227432  0.8806748738341000  0.5838409830988095
  0.8101763132286549  0.3753794359187004  0.1691091305562328
  0.8882333880756051  0.2549182816841347  0.0366972233354163
  0.0103491768192233  0.8378216359924590  0.8690922936776646
  0.8414420317858232  0.8256587558654707  0.4351369706008482
  0.0122641540888954  0.1764246787845356  0.8277153262010095
  0.3001093858490496  0.4785637092590542  0.5398664694105246
  0.9771939459120770  0.0656954589951989  0.7222037576316491
  0.0538201927816513  0.6349235034098256  0.2491601430895082
  0.2704433754318932  0.4141446652218280  0.8426418822093780
  0.8882827732938218  0.3659592958060522  0.8149429540465002
  0.8259993700107982  0.8660110240530010  0.1135325132100959
  0.6909997918060142  0.6305627963553685  0.8973935445990333
  0.7767960854031770  0.0882078575279186  0.3430196730692363
  0.9046608334877113  0.9145753776702615  0.7422266534422841
  0.1914889005753264  0.8337674034209648  0.9943350212102267
  0.7482819431212935  0.2842266746595983  0.5965784786196391
  0.1859418815242698  0.7422518667060110  0.8508012762931603
  0.9402668537179524  0.3904663755062353  0.9621970884046435
  0.5021784964367929  0.1542132176483495  0.5682874994548687
  0.5787302084641370  0.8101705510372728  0.9720888549698348
  0.1913615834311198  0.9928942901071892  0.1267761263866508
  0.9397321545527266  0.0578500744235835  0.2978446531168260
  0.4010198505233173  0.8289648707035419  0.5581055008036651
  0.5936695065051237  0.1869319130077345  0.5276866390965337
  0.2652281898632085  0.1989504982070960  0.9783855139855250
  0.6157234433238093  0.0900772018248651  0.4087791748124321
  0.0335573213063971  0.3994077649538394  0.1233916239979804
  0.0028219721222437  0.7841471674963290  0.4845306282796037
  0.0919145105117810  0.2593058415197739  0.3082236476620513
  0.9942696508232863  0.7668389143978070  0.0200355749730440
  0.1378617219096248  0.6413074587804771  0.5581020882901705
  0.3613713182401527  0.5720281865635775  0.4106866370554327
  0.8435470766879761  0.3297022947850357  0.3516044598571457
  0.8039758782558546  0.0863078814716892  0.9973561621752193
  0.0408789144278710  0.9284123828976590  0.8203327271095723
  0.9379797982775393  0.8033597563201635  0.3989081757222350
  0.3264903555447259  0.7538536088150436  0.9327995147966729
  0.2881480450973299  0.9164652561342170  0.8041277128095780
  0.7428221715661965  0.9524692573297361  0.6615905435748609
  0.8950169898397871  0.5826172374155347  0.1764076790225408
  0.5487752327999175  0.7064620963511745  0.5357621106837638
  0.9898415605511238  0.5672533361492832  0.6528762059435039
  0.4460457893305464  0.7152484515131632  0.7883566433576062
  0.5950060567679405  0.8687133043026279  0.7437353101714370
  0.5590698883742110  0.4482031182983350  0.4476255318394887
  0.1815716778281136  0.0709180472295774  0.0541881492955389
  0.8606717484154317  0.6647132523679826  0.8456954930953245
  0.5938318721336453  0.4288284293204841  0.5933132580478832
  0.1319130772025824  0.2647388559631086  0.2027109950674319
  0.0811223468982957  0.4932780066036506  0.1674254170581626
  0.8803062294015002  0.4997938995262444  0.1012185348130372
  0.3502164170031052  0.9855163727035087  0.0743176717084543
  0.8013935088033158  0.4180965638649850  0.2781118578243068
  0.5576771924261250  0.7852451611749564  0.4549526922145673
  0.8693912795145025  0.5620949595403716  0.4724726680883934
  0.8941489839383169  0.4415296119314467  0.3404846555414714
  0.2670784698118701  0.0466016685551522  0.6231364692303010
  0.5351901954587546  0.5428981996176483  0.1441535025806164
  0.4770179877732603  0.4149826036436915  0.3759444101740966
  0.9696936147761944  0.3240927962680913  0.6597709868588187
  0.4258552511956294  0.8136027059515275  0.2606904599353221
  0.3412962757671277  0.6598756831352945  0.7946723509663615
  0.0583296137492200  0.1585476056107296  0.3146535307864854
  0.2546313417225228  0.3907527032477348  0.4993321193686653
  0.9491080371299501  0.5158077975488427  0.7423102293327191
  0.0867402712869215  0.4710543047994155  0.5447887736873318
  0.6265999066393364  0.2419796821918558  0.7690319569827152
  0.9939775871111994  0.9528786280560454  0.1635638185638343
  0.5236671148611597  0.1081953933528781  0.8375982950968101
  0.9731310455811941  0.5141664311560326  0.3091569111538659
  0.7484388187367711  0.8548821016611338  0.8350731492874620
  0.1197553808146936  0.9802535490094362  0.6546237818936422
  0.0139647029275813  0.0371990545859934  0.2248271826343581
  0.1640707963315238  0.1357217610315505  0.7187616753230435
  0.1405539084971895  0.8371839737968643  0.5983000142795454
  0.7971058586390166  0.9581303410405622  0.8404361369910418
  0.7702466618888939  0.8344346567748939  0.6347782541527998
  0.1821306706475710  0.6455763761680989  0.3791758803319595
  0.5982061211806804  0.3436214860247267  0.5289920394296491
  0.3333735874171261  0.5074739685814998  0.7026754257463297
  0.1674392857373257  0.4496236301687602  0.4789170861016502
  0.5115536807394182  0.5604230226828906  0.3079238766474778
  0.0508673850295430  0.2744067331135889  0.8370062376251807
  0.4458582092574198  0.3511296650198376  0.2908847117165989
  0.5244111875388174  0.1216019568557970  0.6708146133583617
  0.4269225356858291  0.3319877631490412  0.5345641464838643
  0.1505085604464565  0.2800096195038258  0.8046203870550032
  0.8592504909364873  0.7661327462477475  0.6141166757450092
  0.9870028700698769  0.2323497794002954  0.0693813661184483
  0.7967073587479081  0.2979569678234644  0.2477424448081782
  0.0824900296091778  0.6992977406382712  0.0016218111644668
  0.5386325184269436  0.0180478746379656  0.7781329931536484
  0.7664714860098516  0.1128317192668594  0.6713475075377013
  0.3874286019626748  0.3133727360874227  0.9634039044794909
  0.3551623848839581  0.1278831806712991  0.1927144777124425
  0.4521568492453968  0.6056752733206278  0.7860142835168223
  0.4234511351993497  0.7205976121527358  0.8956224629657423
  0.6543382577849688  0.1002224106966187  0.5131504359413621
  0.1042825991545514  0.5116505829023749  0.0033905785405992
  0.7749169648304400  0.9155365954110226  0.5566000253652086
  0.4252542111725859  0.4917982096231711  0.6497910147817205
  0.9061202492167892  0.7017091910408577  0.9434717303888406
  0.8556282959999637  0.5615469501980480  0.0156014670661666
  0.0315122779652167  0.4051515856239979  0.7085176517675923
  0.5688018632905057  0.2590726906524136  0.0331632599726546
  0.6349652810064323  0.6655688912664853  0.7039021215540464
  0.7066064918946547  0.3094604582781069  0.8180146679854465
  0.3791923595369781  0.7619038086543981  0.7148328581282384
  0.9448021506832757  0.6093684767797071  0.9854573649593280
  0.3376548789838590  0.8226874556618740  0.4670838956940784
  0.5582065275400201  0.4574543423932063  0.3148462344341132
  0.4642246169028519  0.2689649484789590  0.7787806446758454
  0.2914170086553181  0.1021407585268220  0.3411191022738571
  0.8699631562719602  0.6593069526138454  0.7116449317909586
  0.3283707917350183  0.3300180780270667  0.0553622938349116
  0.6500103363672693  0.9563946011722062  0.7165883370316209
  0.0938512442680542  0.1312614676245156  0.0644590512397001
  0.8800717332058582  0.1874075277662010  0.6878528064187575
  0.1409058002044805  0.7311729141791183  0.6177922371238808
  0.4726222689231507  0.5335663309876589  0.8720115387929822
  0.1072837118063423  0.4306475357494935  0.9342318113298077
  0.4806645430588345  0.0936701134971243  0.3013002925964388
  0.0623333104224659  0.8727701990057946  0.1605902915720636
  0.1114164692446993  0.8005563836984366  0.9081474358533492
  0.4510869911297633  0.9643476329788666  0.6017663898837463
  0.3010705542142218  0.5773916840010609  0.2638180916916467
  0.9082673483801853  0.1946114249546030  0.4091034736237098
  0.4222855354338859  0.9868756450225532  0.4980004115253114
  0.8514483253074617  0.1067772672281104  0.8972580302318680
  0.6614201291214461  0.6875610033319576  0.8093469639848220
  0.1567436348127858  0.5752713732646557  0.1337752595281106
  0.8111988015435055  0.8478900179374627  0.9307168370913017
  0.4460110419480404  0.5632959305380030  0.9911872754928025
  0.7903854569905771  0.3588670029883832  0.9827631657687796
  0.0972908058236699  0.6047053633611656  0.9485302811017706
  0.4126780144971337  0.0369133369459076  0.1516962154188903
  0.6012715470637797  0.8638364212373882  0.5283291620536836
  0.2050312604438746  0.5941242787155511  0.9274134130986722
  0.8045779308817622  0.1685143787111420  0.4075382687086923
  0.6590439092969427  0.5875783818428594  0.2604595664855279
  0.2559926293538299  0.1548632452905720  0.1613478618146022
  0.9183980931137542  0.6417341893069560  0.6102275661876875
  0.9791936785561488  0.8661547787460849  0.9758397177356475
  0.2190343963740362  0.6380544238937199  0.4834527805156433
  0.8375597228177530  0.0625267975033319  0.2605807779983895
  0.2479933179687561  0.8761071799436694  0.2148846781734196
  0.9102353293224422  0.9893077278344915  0.0915836724034655
  0.3915349811385365  0.0450340190552174  0.3393727124101876
  0.4390878422588836  0.9246094585649953  0.2925594746597613
  0.0974079113484095  0.1011395451503796  0.2291948515111370
  0.5509917702960891  0.9241858574655970  0.8273415331798913
  0.6423279168695786  0.7936825869516221  0.2197818291221414
  0.7817448240653301  0.0232035277088085  0.5432040014927274
  0.7534564069335182  0.1352568344356420  0.4975708281299740
  0.2990412630268008  0.7625313767407393  0.1170726410498214
  0.0610722772825993  0.8654093964765819  0.5302514436743671
  0.2318165270460705  0.0178683993758507  0.2977193032649102
  0.6451733721172169  0.2922671667898498  0.9680292412907551
  0.3810303102876238  0.1378559180676911  0.4299816401718680
  0.8958586502721746  0.3572730490359030  0.2498219736166402
  0.0075917299771199  0.7842956246836875  0.1303160778392398
  0.8985013056111847  0.1642254776180014  0.5744384313940194
  0.1987241765165599  0.0290543309726465  0.4570947744583823
  0.3525826867219617  0.6135643258852824  0.6971021381429242
  0.2607081854025302  0.5426067534274540  0.3614686291559422
  0.1708997971240542  0.8556653100677754  0.8294333438564078
  0.7898439243823039  0.1838537860337653  0.5866185884364834
  0.3044709477670567  0.5107481158884861  0.8048211393065845
  0.2648015072936835  0.5356464583358351  0.9989542636014863
  0.0940013026662841  0.5565333276900201  0.6120981308623311
  0.5139691980226581  0.8109563402227342  0.1043355526368486
  0.0420380227514072  0.7067252716136858  0.6591669550273933
  0.9510270081661538  0.4970614716163748  0.4956306308417300
  0.6509920387686072  0.5999306405292318  0.4180434507050041
  0.7455250570933635  0.8057023016752686  0.2531409140846850
  0.0116266481073787  0.0605102959275432  0.0490315978023034
  0.1049901402095346  0.8120900052384397  0.4453888404949941
  0.0160417177592805  0.3921148412550728  0.5827282567379733
  0.7572727475528631  0.8040954773919545  0.3636607123616605
  0.6665014336912374  0.8303649723427485  0.9102637555556038
  0.1608814861773683  0.7776410703961628  0.2046088347902924
  0.9735904955352231  0.6874925440562182  0.5251124057916231
  0.6001157520419519  0.8935603322487298  0.2194354580881590
  0.9405838454667119  0.4154034892385138  0.0691919938680538
  0.8803884791887419  0.8335953594382379  0.0250837215312245
  0.9962228718418005  0.0318153923474529  0.9420510534922609
  0.3352021698535525  0.8849190641382967  0.3001921066991129
  0.1141443535334154  0.7476318944733156  0.7343744369351624
  0.8765491379318923  0.0572659830460797  0.5803244502006458
  0.1493411736067592  0.4144444820764162  0.2280573931915775
  0.8211342393354013  0.7496338812755023  0.9843465590185361
  0.4284304941073411  0.7376048532753233  0.3413196059440807
  0.0942013364441583  0.7078053203404462  0.4055498333124481
  0.3428343358867961  0.6656852597313444  0.5572402361961412
  0.2734424571964116  0.8143032590761697  0.8471609451267548
  0.3597174847469201  0.1958783858468405  0.6381005466874095
  0.7008640667674433  0.7489807994652671  0.0648433696951871
  0.8623392716636158  0.8542177871906107  0.5439175159424444
  0.8193447332681428  0.5302393164138965  0.2416998264025245
  0.1399403801802415  0.9954467520217376  0.3654998574767634
  0.0914618097084571  0.8806231525737608  0.9893566365429964
  0.4120476495532156  0.5961708678503842  0.5067156828259216
  0.5979016839673413  0.2976120742507908  0.6806134261905719
  0.7634982627982787  0.7479523636774479  0.5486472953746047
  0.2295693832533633  0.0095213657019557  0.8024265815363025
  0.2272611047005731  0.3215785895118224  0.2266643689318963
  0.7073254331239590  0.8394128314017717  0.5184444666735762
  0.0644889072829119  0.0961789162366160  0.8812237582501919
  0.1905915432716900  0.4973202964491957  0.0657211043330472
  0.2207008839012327  0.7028414530405706  0.6886994046069472
  0.5599525009226380  0.7276494667223262  0.8299522464518427
  0.4958388757056681  0.1939216417611103  0.3464818318093821
  0.9139279675370422  0.9631917513635571  0.3451728194813751
  0.4068689394870235  0.4522224267494463  0.2513347049318676
  0.9627636684622624  0.1026963946237895  0.3935791464639110
  0.9234207416139020  0.2512920773779166  0.5062453220411793
  0.3360734668944270  0.9255838024874052  0.5096457654179926
  0.2183356365190195  0.9857920040749569  0.6971012470521417
  0.1500532824304972  0.0208147450138363  0.8752294426774900
  0.8518130807238308  0.3478684093517044  0.0725621548848323
  0.2470834089027961  0.7171286428425248  0.2231142717465819
  0.0807579452134205  0.6444913732769429  0.0971675115726107
  0.6636731700578467  0.3954659203036498  0.8707821143057081
  0.1699849396853063  0.4619455308634273  0.8527468997699763
  0.5539881915920044  0.9611259562190000  0.5519034401623680
  0.0838254286996326  0.2412173344153669  0.5691851123065155
  0.6545972389773341  0.5931046987963946  0.6206813020344004
  0.6907980769526600  0.9851789663740891  0.8179511014525748
  0.9510505796667038  0.7275286128355333  0.7493878905050662
  0.1163384795672433  0.0822521610331965  0.4974695146348125
  0.7244053539791968  0.9083835937653801  0.9648788552926120
  0.3617920314753501  0.3976011260339488  0.8997741053951676
  0.5425268884020876  0.7260020876405741  0.7098337930020843
  0.3094607471334077  0.2142356403112109  0.3624198688459381
  0.2647981034048353  0.2649793342489439  0.1348430928152673
  0.4898388812723929  0.2990941038080710  0.6764391961866681
  0.1584280792560419  0.2989801652889181  0.3826659657451102
  0.4931523800940831  0.9650712915601624  0.1272753085969014
  0.2549659416504678  0.5184239214365222  0.6313906587849416
  0.1314823207713284  0.3343575467066184  0.9747744416803422
  0.8025752518343090  0.7485984418979732  0.7087533214440168
  0.0734720480615437  0.1820291178151985  0.1622064434159634
  0.1365251592146393  0.3910659506555889  0.6802359295068242
  0.2046858810482537  0.8194118475460769  0.1085298968893840
  0.7796824190042939  0.4654380214672684  0.1152202968598572
  0.8093794209906677  0.5866436297475855  0.3356492364427248
  0.7713217414493958  0.2473764398510796  0.8779328844145231
  0.1596998334372610  0.3033658850913976  0.6175755522716979
  0.1902160126415687  0.4052300973911811  0.1264015558651773
  0.8235138156224954  0.7768128200235938  0.1766155610277536
  0.4983754669489343  0.8651168573612390  0.4081551561471669
  0.0696608208889254  0.0816518891505147  0.3997978120070266
  0.4371902369377794  0.5856500543193039  0.1515049383777323
  0.4262048312156214  0.1412300965490170  0.1056601977499617
  0.6747042943029269  0.1010155868132202  0.3163071240976789
  0.3713011331177485  0.5761604424278698  0.8608505928632898
  0.3630455125166291  0.0934215639422920  0.6103277082523191
  0.6626568417575202  0.0905825004769838  0.2070337547264375
  0.2609555856416859  0.2450044199877788  0.6341235195706745
  0.9108524460519192  0.0212401935918099  0.4391946660794012
  0.4010671556964378  0.8351973919835117  0.3800276709861398
  0.4612908482005764  0.8981044782259900  0.8767830786470717
  0.1374290561190312  0.9042825334046254  0.0901452283259137
  0.3418875598713867  0.1646488003473832  0.8300268238368893
  0.0012966389688532  0.3224534489131772  0.3091843656546778
  0.6617780695473597  0.5005577463659225  0.4691736212894855
  0.0689805387620261  0.5031980223979418  0.3602445553725070
  0.2768808737201880  0.1240279523672476  0.0583228897943762
  0.6945005060037045  0.5829109012325318  0.0589492518708815
  0.9588820653335158  0.0049647303058697  0.5375857183406448
  0.2909985601260670  0.2900530684668208  0.7308576678559279
  0.0041835398780676  0.5939981929368123  0.8939767059214150
  0.2136804374024801  0.0573462927134370  0.9528443653484933
  0.8710356101687807  0.0669865139540141  0.6883414692286989
  0.6022382186723430  0.2782201245260254  0.1527622437213668
  0.9386465702085757  0.2814211079272919  0.9437709246653145
  0.5724615284708329  0.9974116645651969  0.9639217853672252
  0.5553321723153073  0.3909578570323001  0.9060063514370471
  0.9609856297693117  0.9018274680541600  0.5616744198207289
  0.3674015446171781  0.7431484416769630  0.0360235623580572
  0.8191894443178686  0.9845785757999450  0.7357708289015756
  0.1160370903441963  0.3992104781620487  0.3974001262052614
  0.4175583107373798  0.8619396616916111  0.7082741347679355
  0.9572654415786834  0.6216148434816139  0.7944042469336519
  0.5688001030004944  0.7053354098222586  0.9981995012664224
  0.7805654372484827  0.1026484834895581  0.1745685131764327
  0.0767497784439071  0.0752389450339539  0.6818921839329609
  0.6810558959524098  0.6726927579564319  0.3312916944861973
  0.9627311032159350  0.7765958622652462  0.6525388231098269
  0.4357850114744445  0.1515726758624562  0.9926368326919495
  0.3582628537150644  0.4908934383716234  0.9651818482283652
  0.9255017985178928  0.8069132973106523  0.1972095471158186
  0.9150676352152797  0.4084486610453847  0.7168137087595161
  0.5924955572388850  0.8690277301314520  0.0634449870365499
  0.4110918368659632  0.2614631737474560  0.3433421122056406
  0.0975287050371760  0.8860679296648833  0.3629462313872204
  0.0471137606454557  0.5346998114750738  0.4634535506784024
  0.6238493628352454  0.3508465994287596  0.3170856377083204
  0.6658241427981924  0.8770333902465537  0.3123882295475703
  0.6330294861295881  0.9364693010010352  0.8976394593076611
  0.5129143590735025  0.4613146845600428  0.2134510887639130
  0.6398739872791943  0.2625094190245039  0.5872768361107119
  0.2387814939392285  0.5331078962443472  0.4674177153440753
  0.1572160066022465  0.4952546211437902  0.6763726069594014
  0.4458150298072287  0.2421500503773968  0.5944660686039546
  0.3632547571581392  0.2116841878006397  0.9335959751305752
  0.7417367116654894  0.9366747266439358  0.1321247534192714
  0.5176454927043553  0.8290845148079822  0.6800401969184282
  0.9313665092599529  0.4063797730484994  0.4392486990224050
  0.5819912988962976  0.1953195014533461  0.4176700379819156
  0.2874717308982476  0.9548708816941369  0.1534371720921390
  0.8730224040539432  0.2661498888935500  0.8530619560555079
  0.0579410019206521  0.0393609027148601  0.5745513858612180
  0.4949869542600214  0.4288277717043177  0.5402993695547714
  0.0621091547106607  0.6331272207253238  0.7420771056947916
  0.7083499792245230  0.7318739705039089  0.6556837429257544
  0.2082126910677599  0.2220704809621246  0.4509037641270813
  0.9302503520578534  0.1782673541268401  0.8951930400814193
  0.4948995588518245  0.8747706276681763  0.1940560565020131
  0.9870645239826172  0.1526275810979121  0.9899353473253777
  0.6471755308833155  0.5119401885941366  0.3390326734659649
  0.0673836298675241  0.9102340355526143  0.7150962120399794
  0.6051209093628840  0.2993775101146045  0.8647249331987227
  0.2527808953724583  0.3071964027968263  0.3348593992598420
  0.9130389639732600  0.8182905773282265  0.7988108770535188
  0.7539929861642755  0.0110155976055979  0.9302485537354845
  0.9648186194960805  0.1817689058551157  0.1616854575536577
  0.6559824862373493  0.8187159885939481  0.6169812692068498
  0.5440798816515982  0.1570932723131153  0.0003457870284279
  0.4568055161008800  0.5913696952906716  0.6750467091010858
  0.7682752149784192  0.1482927323556046  0.8403054143922705
  0.2712967334265248  0.6261827578798307  0.6272645895557304
  0.0364028945433210  0.2337835467661511  0.6659247892478877
  0.0504211283734366  0.2677995667698245  0.9451446869483431
  0.4365774977839588  0.8231328612629830  0.0321712160404204
  0.8501152015434074  0.4132529766095952  0.9089476688676940
  0.6841070651895385  0.3979597812383182  0.9803844004547373
  0.4176244757064103  0.0909646151033290  0.8446199057754528
  0.6599583080161019  0.4868838100271045  0.8119837150383555
  0.0157650838933459  0.5085356023282843  0.8296251740837656
  0.7376678378683292  0.4273737740902247  0.4411093046204146
  0.8415204362607999  0.5086355348587925  0.6274781267240122
  0.7080243522753640  0.4222049081016304  0.3320536216239487
  0.9774076098131024  0.1710987577003777  0.7270458392949138
  0.9966362760376319  0.5502285240865111  0.2096559192241166
  0.1972050380649741  0.0659854998443883  0.2061141041417014
  0.9418295834245861  0.4763349554449494  0.6049412565022662
  0.0607060347003612  0.3162586137121624  0.0567253368031467
  0.2678124624269960  0.6680393891611925  0.3181683053258207
  0.3488674570007164  0.9901537841340590  0.2431265479536562
  0.9968954882803017  0.3605735145673720  0.8054448755438914
  0.4084216474018583  0.0588891886976459  0.9455914316532037
  0.6672668723380326  0.0176650258560382  0.1268880692531817
  0.4758075035929269  0.4084404629650360  0.0682853014251945
  0.8007488147089956  0.7179148615855929  0.0876410019176289
  0.2521596769911371  0.3075631427584523  0.8305093664221336
  0.7329567620446232  0.4877696063833477  0.0175555101450160
  0.6954598097978177  0.0795338848772275  0.7569380695495467
  0.7947334327114483  0.6119549247518243  0.0936035455489166
  0.2929791128934205  0.3757550444957503  0.1505964042256649
  0.7462280136645123  0.2593607133399456  0.9818138081388971
  0.5847885263965820  0.9789399031285734  0.0713867458376407
  0.1951212447073403  0.1541553561623945  0.9088540131716043
  0.6530439802107352  0.2675752712425993  0.3849442610271223
  0.3950389755062039  0.9221329818715621  0.7946320569931288
  0.1697564519424807  0.6593189674227585  0.7760354142143591
  0.8166996348345139  0.4987843043776851  0.3997745456813493
  0.7629237364976656  0.5079067661466132  0.7812609777517351
  0.6265081138903488  0.6342291684309009  0.5235194255940167
  0.2994169087557013  0.4656523935667801  0.2170609964105970
  0.1522479860107104  0.1022344258754475  0.3266435270900526
  0.0633651577090832  0.3473072598307132  0.2178556800308891
  0.4943996481773770  0.2976700756675405  0.1058862902424273
  0.3505801661716448  0.6767458873293613  0.3872214200414222
  0.7634018930515507  0.4412388370485242  0.6082194077971835
  0.1297108930399631  0.5806307283503196  0.3085532778339408
  0.8999968233150047  0.6618413869669126  0.4512708387757107
  0.0757630807771652  0.9595361151673814  0.9193454699561169
  0.3223367513697407  0.7981093065299847  0.2213446485018009
  0.4921285117627514  0.6525303097390118  0.9423769233625710
  0.7168125726509587  0.1025828774220222  0.0725594468271852
  0.5146614592679786  0.0587493707533400  0.4002062615637717
  0.2342101377300554  0.6721299735425417  0.1175493826782821
  0.1831640102037093  0.7299270664588152  0.0271965928538169
  0.6988765324789246  0.2574584607243295  0.2164356398096969
  0.0211499956431624  0.5048251285491018  0.0699151136086941
  0.2331569559629696  0.2939760336666048  0.0159167832445664
  0.6532912528532504  0.2052438435159745  0.2964090889778881
  0.8452203310607144  0.5510920395307595  0.7269941041066084
  0.1622309868203439  0.3031248949998913  0.0992275340187604
  0.0969024601569912  0.1713138092296547  0.9574916306486505
  0.6286357710030217  0.3981251743824636  0.6912554287048450
  0.1137729660217974  0.5255857250993894  0.7764627617101098
  0.8872904521696854  0.2449890489160869  0.2093912435165637
  0.5086064996670698  0.3457237794251401  0.4621233624453233
  0.7859716162978726  0.2118264601727426  0.1570401590762752
  0.3726197559803529  0.3065810349322698  0.4362259345803337
  0.5422332147882167  0.6163559800312943  0.8524398832024453
  0.5081121833649102  0.4414845659797144  0.8205381256912687
  0.6193816669117430  0.5496598387922988  0.8912641208541708
  0.4298481368515878  0.0178204436216303  0.7671401833113443
  0.8025231699368308  0.0275021749343638  0.0953181107474480
  0.0198640021860592  0.3523701457332722  0.4152996561772567
  0.8429324331426041  0.9549693900692554  0.2613776631377366
  0.0933695972337507  0.8414561537309446  0.2620918561271993
  0.4067323386932942  0.4960197837211679  0.5428210102976031
  0.1781931273747177  0.3804713372757254  0.7810120276202367
  0.5142824493673739  0.9630405353596910  0.4494175646184499
  0.8077262883537351  0.0521711473169288  0.4418663111560130
  0.1740452089085069  0.4710909970815962  0.3215374008141871
  0.5229682955996424  0.5020882877583429  0.0435829501426068
  0.5984919541947143  0.4733441859490928  0.9686158901456992
  0.9009508075356765  0.0126471866426565  0.8839579243958315
  0.4125023042986687  0.5799391114008920  0.2586694315408208
  0.1363126913148884  0.2396331524875354  0.7066870959559988
  0.6909816250124454  0.0491849949851830  0.6073607050677161
  0.2781036279690099  0.7793898734955990  0.7414663117461255
  0.5426154289007238  0.8666068012761530  0.3064500467943802
  0.2100532200403488  0.5622968585197128  0.8241496368457526
  0.5483467533571533  0.6210394402322688  0.3884290462287983
  0.6411786142369761  0.7115293861550900  0.1471820296292023
  0.6736530051861511  0.1803898162130082  0.1415296485201834
  0.3543147062070329  0.5154404916074767  0.1356729946596407
  0.9143652375809401  0.2564140981214278  0.3156808433916358
  0.0588470668954373  0.6398358491180509  0.4846183041847116
  0.3187349625995621  0.2237961580342228  0.4771495504532712
  0.5519138019581274  0.3802453305726278  0.1503700287051459
  0.5546821164475467  0.2125329671966162  0.2526535056052843
  0.5300743087059334  0.7231860563519500  0.3666198244963165
  0.0772676833444650  0.7130273949218879  0.1780630135203179
  0.5423811275993822  0.3220741607120953  0.2465861924117126
  0.4251076817215154  0.5082388495516557  0.3485375464361609
  0.9209753812585597  0.7002606907556577  0.3535694767994152
  0.2457493574054574  0.9784582730788081  0.5404277241056852
  0.8594772060349162  0.3309713131890306  0.4661418994901853
  0.8293141121687627  0.5936722290604426  0.5666405331939023
  0.6865864533567209  0.0828223632461563  0.8743936797161198
  0.9124882864251191  0.8062563392407885  0.9113094699569493
  0.0113287121905257  0.4228586884008148  0.8914877438561168
  0.4277937629601609  0.3718074340613159  0.8174005939656181
  0.9803841383657338  0.6039328464467983  0.0902120680152936
  0.4914719422851627  0.6801202922800335  0.6243155296163599
  0.9102208187768089  0.6029315062695005  0.3029809863304154
  0.6183548015584113  0.7627401049248010  0.3205036922817833
  0.6534222602783447  0.7977210940444391  0.8029096910382019
  0.9586113414548576  0.9905423202243152  0.7963273037868702
  0.3999041400793657  0.6400532286987626  0.0620696309676676
  0.1521847617040060  0.8468492714725324  0.7181817299504740
  0.2555028271326653  0.8818084344743295  0.6954549363412530
  0.5018492533619641  0.8659504944791099  0.5789516380447102
  0.7468910662047484  0.9127871551417139  0.2400883432644050
  0.8779300611437554  0.2720188923581959  0.6120525803716077
  0.2988194696279026  0.7186232478030962  0.4734628845605016
  0.3824803615804214  0.3467918505726680  0.7207998115595800
  0.5777980963829115  0.4751704773851396  0.7434275846849100
  0.8179662330064855  0.7688650582407200  0.8241473245975579
  0.4251650424483204  0.0923140807785081  0.5190178811526850
  0.8980248307588140  0.9125451338536724  0.1794134303942078
  0.2367315974992452  0.6961127091401799  0.9378052457417843
  0.2369465948557130  0.1198489353646925  0.8087117442963554
  0.2009202517496875  0.5414027057995549  0.2307896518943132
  0.7362661826835764  0.2963612372290143  0.7103091876711610
  0.7821938071463392  0.5839349109865466  0.8608285803227561
  0.5440873208327286  0.7109114861657369  0.1032424863858654
  0.3036188067930154  0.5965761737736486  0.0797623157474733
  0.7849513051022631  0.6941632623308088  0.3554678201015704
  0.6981510074867928  0.8614925985489305  0.0618620642211199
  0.7773315177240850  0.3674782267813801  0.5269926945178339
  0.3842130816521746  0.1566244600442879  0.2987104491578645
  0.6393612684239319  0.3710646888251554  0.4299887315889205
  0.9746068634519354  0.8826034851369031  0.6669979630300643
  0.2168485645666698  0.1435388656202170  0.6241444396946536
  0.5181886443938731  0.6140804713654321  0.4911642404703918
  0.4790705734352600  0.8078570532991814  0.9313665594668838
  0.9924673695904994  0.8060887693855840  0.2838474118798757
  0.4437318680292004  0.0512381790832512  0.6671836420488934
  0.3709411974982029  0.4346739538285226  0.0627162600209612
  0.8050650122990672  0.5088700645349095  0.9365300134678266
  0.2692826814135245  0.1257467998675091  0.4445790490088366
  0.7320083750527459  0.5505098750723791  0.1695844186890778
  0.7374425942429681  0.6484391714494865  0.5840333151169623
  0.8147709539796556  0.7238386419117664  0.4559384911133140
  0.4379819837232549  0.3854726202046382  0.6341911860236038