generated by phonopy
   1.0
    27.1243997619598325   -0.0438349568842267    0.0036334090210848
    -0.0442542476007883   27.2993707108617940    0.2829826034730780
     0.0023705542124150    0.2830043756566851   27.5050693612292569
Si
1000
Direct
  0.2688460719408626  0.7332133166142276  0.5052881283066781
  0.0070240720256452  0.0240032451888690  0.8309674804927485
  0.6592177268445815  0.1302692408155477  0.3679678995360379
  0.0618143339345679  0.5060890848948457  0.1578564315193480
  0.6040983164992724  0.9363956332177807  0.6273911476513266
  0.1207515322144075  0.0686457222071194  0.3079054717156715
  0.6277026339431913  0.6319105450237337  0.3138968131858456
  0.9051985828843793  0.7342297145625979  0.6931920969514489
  0.2539358992623508  0.0954958585010413  0.4761729029698245
  0.9697893475059335  0.4829685894668416  0.3271607874631645
  0.2505509846387776  0.0107753550473929  0.4892806448476718
  0.4204924110765883  0.5274823888445306  0.2072000999295713
  0.5833323622957518  0.7354523423810710  0.7135413024369530
  0.9673185953020454  0.5862953096055039  0.0506012978887271
  0.5146570222700152  0.4053596074398759  0.3324822974081276
  0.3450886142297276  0.4395393304256022  0.9748177172982163
  0.7597912254558323  0.7436402709128928  0.8880123507266817
  0.4168588200927355  0.8877485115330965  0.8027536037259717
  0.4453442376946459  0.1490212635895469  0.9421092392470485
  0.0267189117871645  0.1831062570826046  0.0949711278712377
  0.0515084165371238  0.8980132939682880  0.6165430933360985
  0.9786938407425291  0.0039634002913698  0.0046987751747013
  0.6811427326548818  0.2802379250267705  0.7626557727876925
  0.9540113224843746  0.1791333639541210  0.7090307171828432
  0.9171755037459089  0.9837951180947250  0.2682114382378287
  0.7770391667178155  0.4173567702679331  0.7281095911795273
  0.7183651573716197  0.4331899043569125  0.2050507343366709
  0.1514351803526900  0.0890595635309311  0.2288804902095181
  0.5537352446645667  0.2857216046610960  0.7664938991351496
  0.2920926871518286  0.8345611063111182  0.7300070863603733
  0.2196073669409815  0.3700907820665210  0.9647010722299312
  0.2056491566594194  0.8866580945510013  0.8567724186161967
  0.0360681903052945  0.8936944482847586  0.9590135282069272
  0.1495022677626503  0.1443636289933454  0.4066997097550530
  0.2700786581682848  0.8858366599969884  0.0537616021376200
  0.2872484520283902  0.3853602576162442  0.1655888958842081
  0.0110151484466969  0.8467630184659157  0.4793890931407654
  0.2502071450386800  0.8534932800558980  0.1946553654593456
  0.2624667988762064  0.0877288037943304  0.7642992029018907
  0.4053392354155396  0.0708287559249809  0.1082122305909342
  0.0679522235782804  0.3875487323259731  0.1726362175383450
  0.1936638276914903  0.5185112531597884  0.6633852701104974
  0.3846584896468520  0.5093674823076140  0.1317253100947624
  0.7068867693852134  0.3986256090753610  0.8566311565258776
  0.1315208096685231  0.2361830630503113  0.9302401308382779
  0.3192588586619654  0.4409755260411909  0.8153034439935707
  0.2775819817249173  0.7017630621158433  0.7798008674765802
  0.3304139027636647  0.3100818904914586  0.0074141785607948
  0.7154785771822424  0.3608512753877207  0.6896720537139369
  0.6395685343289558  0.0976820224342214  0.1542440930516482
  0.6812816368385404  0.8634198136840973  0.7199636746873108
  0.5963415051314814  0.9048792902436185  0.8936950874021933
  0.7796380721496220  0.9459733365909294  0.9863895553157982
  0.1718109397326348  0.1036755217626981  0.6082179266043634
  0.8883477153547004  0.9174769837102794  0.9119158501092645
  0.9828688431544788  0.1809365758554727  0.4086778882533749
  0.2499734907347403  0.3016731881455089  0.3822868618888821
  0.1689840540066394  0.6388707373959606  0.6837127122495548
  0.8928394104930287  0.2094421901968630  0.5391052349813270
  0.5721797681278087  0.7312968005940592  0.1619721491920013
  0.1587509429529891  0.2663171470917625  0.0480037325237594
  0.9156968720594167  0.2430079776505347  0.6644819814597621
  0.0629800722785172  0.0110253889920065  0.2725879399871139
  0.4676838591693718  0.8968019274101471  0.5740630980800423
  0.4109408290729777  0.3297468765481948  0.8961977441570697
  0.3375115932244539  0.3787108465898131  0.3374798105527529
  0.3756286644922105  0.2497420672636631  0.2935931890002115
  0.4481025261623853  0.9930838178257380  0.1195429549901719
  0.8014361276520896  0.4573604073102301  0.3471469790833102
  0.4209489512456820  0.4185043919981737  0.3404956015435459
  0.2925183701693959  0.1406072768322304  0.1346741128059968
  0.0885283391314062  0.3890496699556171  0.0767256016397428
  0.6160172044343095  0.1380248934136299  0.2940673490481201
  0.1186242169218338  0.0408673112444682  0.6406308274898065
  0.0474752995669965  0.5030495888357789  0.9833433764023484
  0.9684011261207151  0.4953950339819408  0.6547957732593468
  0.3613604919532795  0.7224178790262571  0.2941337932576561
  0.3053348333566696  0.7182071620306282  0.1699079238443932
  0.8999909055870803  0.4899158742399758  0.1282899500238613
  0.5990051628021962  0.0279828715665315  0.6435224132450648
  0.4514869367639526  0.8767907203224321  0.7224626790714497
  0.4757717226376813  0.3028913476203697  0.2188808666738921
  0.1144573814714915  0.0194849077247375  0.9976606654449276
  0.9400156710986306  0.3529545945645515  0.7326982421261363
  0.9121694136192227  0.6579964752520200  0.1695176154652405
  0.3624848171340941  0.6837101941241054  0.9243194987550561
  0.2428839198334436  0.1933745588635551  0.0879569153410575
  0.4019391397688342  0.9721632898041064  0.3508417628794929
  0.4440340012687531  0.9123169346837798  0.9388599500886503
  0.7362628774950387  0.3494757543467391  0.1903177914742170
  0.4095941212987207  0.6674889948379931  0.8152500741238362
  0.0140331719020856  0.1466189520210833  0.7606029232347720
  0.1638554242111480  0.6816780051487826  0.9973764410221162
  0.2793930173249796  0.0279099263821960  0.2057537408442799
  0.0440171726114286  0.5308475955574709  0.3195118681961059
  0.9698812197015391  0.7720178397656685  0.2428333664537033
  0.2604065960428355  0.1810606941559981  0.8462218788048835
  0.0581368918655279  0.8979322774261520  0.5293237952985327
  0.3548673285956647  0.4728771443907821  0.8945496918449876
  0.5525530860880987  0.1126357765678609  0.1685397841322907
  0.0404898862604600  0.0654526950512259  0.7607697442908843
  0.1996969339731684  0.3821184511310158  0.1622138789736599
  0.2147396419425488  0.2290818438308779  0.6300480575669799
  0.9864438418501742  0.6968272238282003  0.6984872734462663
  0.1798614053700530  0.9587795477354225  0.4288444043495256
  0.4137266124468327  0.0548962275965462  0.3739282581158866
  0.2611073784797898  0.3358087158979036  0.5955612456208162
  0.3017363632956346  0.5196936488989768  0.2594297551865175
  0.5647524568565659  0.6924270670910135  0.0220493636974891
  0.6229670561897360  0.7843821176680960  0.2908506370336934
  0.2805559340119664  0.7140049555832541  0.2596665920942663
  0.0203892399640875  0.6603658532512363  0.3380636645161014
  0.7754630487111708  0.2040404307091460  0.7819056306083026
  0.1623114029401579  0.6761072549450963  0.2360773796868899
  0.1502167024589375  0.1744228967305521  0.6492188869675570
  0.9754086449790426  0.7818017765097044  0.3744580947748916
  0.8560944735580626  0.2030679406608486  0.6169849370302353
  0.5590272451086703  0.4574688178821931  0.9445797247336746
  0.2162334960988986  0.4017477743013647  0.2810934438761660
  0.6107724639022581  0.3029616041742734  0.3874966326349985
  0.5790788345946807  0.1264637384987259  0.9389444681024168
  0.8797252555475098  0.0307609885053398  0.8112406805339926
  0.9269196648930409  0.6573956534182563  0.4631852762851605
  0.7762889110205615  0.5062361625673466  0.4162404974744743
  0.6260479199532302  0.7579581719023508  0.0543558102594210
  0.4019062681138031  0.6098526183329646  0.2243299217737938
  0.4242477667285500  0.2052882063155941  0.4286096001900574
  0.0493611807553500  0.8009376345307726  0.2039352773898465
  0.9099799276971972  0.9626399383749845  0.7671611871086742
  0.9571725186424954  0.0368095711845892  0.6581343090078331
  0.8549800396288840  0.1189731675695585  0.6373383457042897
  0.3704708187971144  0.1877798906238309  0.1434816288042277
  0.9175238874335987  0.1035260059277404  0.6927444382323188
  0.4413115455903216  0.5593929763778309  0.7335425844538217
  0.0297644464472816  0.2449982548718918  0.5569150257012830
  0.3170796991845919  0.9905886743737463  0.8581380572560617
  0.7665623713580233  0.5707192832000275  0.7250492824690791
  0.0255108491989916  0.7034195473854792  0.6230695790452557
  0.2204271226789224  0.2874466748711855  0.8406566494659391
  0.4823096839264152  0.2322835835791468  0.7579185419294351
  0.8774647067662047  0.4984514732333597  0.6693131016026862
  0.0980892758534288  0.6249190772856541  0.2094072834071845
  0.7621886434289759  0.4541405387646263  0.4847819653053630
  0.6565011536943893  0.7110323757202108  0.3275826441366398
  0.8718770930389731  0.4197983866400684  0.4548120754408866
  0.3910698761204760  0.3171486550161757  0.0713323021706607
  0.9590697027324887  0.7212285229007293  0.3144078832685019
  0.9450391282548065  0.0489068656162497  0.5740106840073033
  0.3388130998986476  0.4365719964231016  0.1142281873549529
  0.4045482288844655  0.4060454283017192  0.5002787321427770
  0.1811439139368329  0.7569844061105080  0.2078964560380221
  0.1128448327188855  0.7628267586825191  0.8758081235958383
  0.2445162963566998  0.0262688882399894  0.8240002808917990
  0.2300631600489264  0.2160341811464259  0.2806238531003011
  0.9852648559383190  0.9062085663703680  0.6723781861932825
  0.9238497704193442  0.3923819177111458  0.1910439790324567
  0.1571007826223675  0.0188101537552919  0.7157080086853455
  0.0947744259060142  0.9069643693135355  0.0882209604992896
  0.9745186973583813  0.9917272323157010  0.3845863455467777
  0.4359479869586498  0.6333010283748582  0.9033599365893845
  0.5940108616867589  0.8047786356168296  0.6566926044206154
  0.0101518391123461  0.5776287034612141  0.1296614352002148
  0.5169154087104521  0.0487032855682413  0.1184237534568604
  0.5037352664980806  0.4902374554850207  0.3907048084415615
  0.3893284590827008  0.7473535027312117  0.6804655676088225
  0.3658074318563029  0.2749982722588812  0.1430183345636382
  0.6232474494037731  0.3826332104764550  0.8274107437206618
  0.7817584642792209  0.3751493492263054  0.5927599328822654
  0.9382443252257346  0.3713681218321933  0.4200261367406908
  0.7180323402096065  0.7530174462034253  0.6093264438918377
  0.0386660197161118  0.2825281124565238  0.8129222594517710
  0.1593796958959095  0.8773087713247530  0.7851582917239851
  0.3339669411981440  0.7592699817933510  0.7441531312436930
  0.3442394170750433  0.4455480769311279  0.6866120115213252
  0.0793330255861550  0.2641790139703739  0.6946760067241755
  0.2485941065825399  0.0660645782652160  0.6245041940455787
  0.2032912892470396  0.1608089019237336  0.2207406794751121
  0.2549430848471775  0.4314496813738523  0.4315189439434469
  0.2848173356552812  0.2551722422870238  0.8868260257951737
  0.2651584834224135  0.7238681969620533  0.4156319775407885
  0.9321717377529040  0.0406513744677425  0.4440334524839611
  0.6553196855037473  0.5413018468121530  0.1311400330892550
  0.5486188856998704  0.4285691517716275  0.4354660726374038
  0.5041077913687204  0.4306769662768298  0.5361585655563124
  0.2069829321725788  0.8173430052446844  0.7464092747164536
  0.3391398663579374  0.5278552556707536  0.5063802934851834
  0.2592276620074255  0.2905427861357470  0.2398718599287761
  0.6930975183209171  0.1762716774607038  0.4734067135111913
  0.4130792584834003  0.9902795722502165  0.7478919449146377
  0.6380954866726454  0.5325397725534412  0.5328971110116804
  0.7259766706217883  0.2812171516612522  0.8985379879744758
  0.9325628319491155  0.7230695378174586  0.1074630481959264
  0.8355714053565473  0.9123476330552870  0.7954103864913061
  0.3544121231794692  0.6057932080513940  0.8634235393598042
  0.9502227523463530  0.6705515793882364  0.0440760365112815
  0.6139302464735571  0.2946335568142575  0.6975950863072735
  0.2189997001135767  0.5054558731473340  0.4579756999689155
  0.2449022298509362  0.9394840283607513  0.1151624508444578
  0.2928624883307107  0.2415671709769937  0.3341023545141299
  0.3981224395814735  0.0155267289800507  0.6523196799976563
  0.0455787562285421  0.9796550594825951  0.9586558624281073
  0.7797121434842704  0.3415322385981419  0.8593612517980723
  0.7967765064300503  0.5255826866914406  0.1586107880042516
  0.4038814921191000  0.6814285812984164  0.5065162113100043
  0.0735161161911246  0.8239507883016097  0.6759169057527512
  0.0232335362614591  0.4418373002393347  0.1105982234879002
  0.1812990421185994  0.8085277306772850  0.8988905546040122
  0.9733405851220809  0.1082138971099497  0.2941278629264183
  0.5503385372262068  0.9200157021601608  0.5607847182738472
  0.9674504745614811  0.8763374991272732  0.0152947319384755
  0.9180869896389547  0.8340097279015271  0.2073419260587093
  0.3586071303544378  0.1100450062973772  0.5692894017107205
  0.1399057834034384  0.2743590212396551  0.7572605779039892
  0.8995271142771049  0.1414985303386271  0.1467623280869115
  0.6905088577442606  0.8879050062614290  0.0719121913972678
  0.3249233276764199  0.3641841150649349  0.7120669902924850
  0.0896438628047783  0.3930314361216650  0.9438608032011980
  0.5124390324232467  0.1622459360301557  0.3454147316135165
  0.9788200652460548  0.2186757661292897  0.9002505986413957
  0.9364128057529320  0.8690892785632653  0.8579685979827453
  0.5611298939530023  0.5536033551461508  0.3775318080272232
  0.3670031613582398  0.8114642954504404  0.9904969605449775
  0.9996097869978763  0.2685914407425777  0.1725444376403562
  0.5915136214972077  0.9882524826183622  0.7272698049403932
  0.6782026748945551  0.5513292346152109  0.6132329801659416
  0.8738743413865310  0.2984534696701847  0.7159883148389486
  0.0812375853247768  0.0967292431864690  0.1749905127367581
  0.5113048148927951  0.7812404486925120  0.6312801940954189
  0.2279762000603445  0.6519625554394619  0.2990182172778866
  0.3073179110331465  0.9273237127378856  0.9177768722932008
  0.2207412930775134  0.8338844869307879  0.1097149646136113
  0.4660093730740160  0.6518478596551693  0.1821262080310946
  0.8072639737598166  0.6699494036389456  0.0261704032845322
  0.6500906046018642  0.5258744125939390  0.0207524795344776
  0.6934917866855019  0.0382027420221463  0.9953935788593561
  0.2896696372844577  0.4550582425988118  0.0452950025983547
  0.0240348159212702  0.3343213667027010  0.3714257334205482
  0.5815237620738992  0.3762947228559097  0.5607519878122060
  0.4576995783323763  0.0282188858133509  0.8477301768096533
  0.4037739368407868  0.0771579248947388  0.7182741450677056
  0.0321432594162951  0.5876547204715253  0.9914794592440141
  0.0309292908720193  0.6734330292928898  0.0133702927301869
  0.1697471954951664  0.9231444535235371  0.9231266368454000
  0.1249920052341094  0.0711595413830275  0.7753065394027271
  0.3261508683730024  0.4440198299155866  0.4865349294270950
  0.1080067363378257  0.3367699159205856  0.8067992495624737
  0.4413773170349676  0.4817321501683076  0.7725981631838494
  0.6005789531981315  0.3421414224807457  0.1907087321614138
  0.3855902083910887  0.0296503246617527  0.8970584662000838
  0.6861186340160418  0.2644093532237781  0.0303662494624997
  0.9086354156386300  0.8949019412114745  0.2665704956747078
  0.3098079637917974  0.2398936350505635  0.5150112206064950
  0.3361093838844280  0.6549879452807250  0.1169446470612901
  0.3201840660995468  0.5677355143392239  0.1243276119460189
  0.1513964852049735  0.0067949928052726  0.9203662491958871
  0.1497001299623628  0.2299021237055623  0.3122774608050261
  0.4388395741162173  0.6747024614242101  0.6773032736093825
  0.2678496759039978  0.9164749506213390  0.5910857886744315
  0.2882056307855092  0.8263586489374262  0.9543122678569522
  0.9045208906418952  0.8564790146544198  0.7766852729477391
  0.9899684622110260  0.3943510346989307  0.9609144079770756
  0.1935145996323450  0.0253379795068831  0.1865515637756933
  0.6002753586533194  0.6070175915806975  0.2327671644982002
  0.2206161576284464  0.4006350730041886  0.0449106316829420
  0.1454655823689787  0.6971793593583021  0.8327071286082679
  0.0936730081467059  0.1043523719237052  0.9919918466178059
  0.0257316398553674  0.9088536564687112  0.3603551543714721
  0.4771047421555124  0.1656583551410178  0.8134369273349894
  0.0767023198913947  0.7281342946677886  0.4984703513248196
  0.1219203240729405  0.5674971202564947  0.6606980051970581
  0.1981192939862424  0.2844835220756132  0.9732896557426489
  0.4491357581228722  0.8726626872585893  0.4543728948281301
  0.3543310611644436  0.5720392762854181  0.7238778883654122
  0.0527210634511050  0.6446572165700876  0.5072871086957702
  0.7821483264462736  0.0788319962572654  0.3151707850026161
  0.5827060905307974  0.0247113745197887  0.3632052142613246
  0.9135465366543182  0.3496837027784735  0.6018230894456902
  0.7113942350787005  0.0628124795448990  0.3601689311675235
  0.4123926589565446  0.0093485427500701  0.5111624853220533
  0.1627143602431570  0.4418289807662690  0.6461289706003724
  0.9759380244230476  0.0870316295448021  0.9806836055242723
  0.6565276987599674  0.7802654493584106  0.4416332710944008
  0.0063919989568745  0.9039389675030491  0.0883510435101497
  0.3682242402899673  0.1394713882628911  0.9939645887750371
  0.6706916215547065  0.2162809093871163  0.1682770100770364
  0.8013455532795569  0.1965901253705169  0.3848046236216680
  0.1360414498176917  0.4441431200619195  0.1621574808801865
  0.2965530838789872  0.3751760439124834  0.2531266742741237
  0.7558890517125532  0.8413189191385195  0.1107031153594943
  0.5376579666710100  0.2701908803354016  0.1650501385448460
  0.3044890963962879  0.9008387051248165  0.6694953772361272
  0.4667562098515393  0.2862057681567387  0.0362266304899296
  0.1618443839158138  0.8046499540496873  0.6748867039736868
  0.3867818919066544  0.8176441741438124  0.4810230512333297
  0.8515298210652609  0.7776604671851185  0.1953339052867830
  0.1051079691143789  0.7306432172835328  0.9559156392862871
  0.4665715391837463  0.3892552319862197  0.8521917526435976
  0.3430057967849767  0.7514311817538638  0.6079174795810310
  0.9764545449866577  0.1131591854521821  0.4631969161923114
  0.3530448920796802  0.3620536411537350  0.7947222131312570
  0.0881588401367934  0.6855858616547135  0.0792830145904179
  0.1048259956705686  0.1694543314193360  0.1294069422994656
  0.5685830773244488  0.0002774930706122  0.2298590002472002
  0.3712487106108103  0.0508097782361849  0.2986013857210223
  0.5638143626521536  0.5838126912227454  0.9782469859542298
  0.9206753847822663  0.9206472290680195  0.3855491569810502
  0.1819828489457825  0.4770720469899180  0.7880157742091478
  0.6878493795840179  0.7751047362534097  0.8502010509962663
  0.2160450085222294  0.0584494732658809  0.8956356482242169
  0.5699350460220397  0.7633992871074642  0.4321297115553075
  0.0009365114661465  0.7662941552870801  0.5078046673685844
  0.1632559124668729  0.0095665393239963  0.4963766119604228
  0.0527066571910117  0.6356253922004073  0.4209273020201522
  0.8452164759101466  0.5476870997953615  0.0859116807553872
  0.4311274690546721  0.2799364004982108  0.6217072269358908
  0.5103005238055434  0.7132014008179428  0.2246382139854595
  0.1403373506360922  0.8347589536124609  0.3851722846854048
  0.1048608062115754  0.7277095317631185  0.4150400069129171
  0.1566344147149317  0.2229802501540237  0.1761981394770906
  0.4794080945502756  0.4603482939925977  0.6361171165574347
  0.3966272556611461  0.8869949734146204  0.2314804047717986
  0.2587738157051244  0.5699758957386513  0.3149903123141288
  0.3847196197104068  0.3905234492335791  0.2608431030738648
  0.2996972564314860  0.6898229680642329  0.0467052494573267
  0.8902734858768320  0.5913096994463095  0.6761726272992113
  0.2412115368587215  0.7912381549688435  0.2599664505532644
  0.8373976135177157  0.9580268660079533  0.6595452604862260
  0.3387368108496791  0.3147298754534270  0.6424362775258774
  0.7617318042892481  0.7206739022523605  0.9714001427481167
  0.3894182447841557  0.3577674422079478  0.5775202841059198
  0.7470841752868356  0.8640705384101052  0.2542775433290133
  0.8006239064577223  0.2652149538443720  0.4852230106370647
  0.9870940042142157  0.8598843030185009  0.1593631723691735
  0.9916237368587617  0.5837415586942978  0.9054303130890669
  0.8388633339690190  0.9442044311891211  0.3580137468679331
  0.8524305436196935  0.1290806054182023  0.2215368847518281
  0.0335775992417013  0.8333262055102235  0.2932168391714557
  0.9752043729379418  0.1811674979053186  0.1648432155721876
  0.8507399343150398  0.5937538236359486  0.8774889322779599
  0.2850037202032852  0.3046144138645479  0.4622108146782962
  0.4694933411215403  0.8104124039190300  0.5610759209805692
  0.2389153561951417  0.3701731591903119  0.4925095598272805
  0.9544245122380454  0.8594955506476699  0.3326003051404449
  0.4797377124429322  0.9296993612543942  0.6521072013792217
  0.4654261649710802  0.0614710419106470  0.9301159302344705
  0.3889673036822123  0.3070535979153974  0.2231109691855763
  0.7937465485298637  0.0058528705653593  0.4567052243546313
  0.1501404646072989  0.9520684745079393  0.2028047484897944
  0.4537726294499997  0.6177413711983468  0.5390235524525192
  0.4591826388058655  0.0885152209623585  0.7840904576820087
  0.3377007407806289  0.1146507590470811  0.4886096513704042
  0.0493710620821752  0.8337876959303390  0.4020078207443480
  0.4092783853709451  0.3257945968475237  0.3286015258686667
  0.1937299393230857  0.6831550049151589  0.4483243388500123
  0.2140982280514399  0.9498655989346196  0.7893251770856842
  0.0916476656714467  0.3463663698431945  0.4717613429468929
  0.2463166664908768  0.6502280912278953  0.2069362540895751
  0.4008217665846234  0.6867152400005110  0.4206373587816685
  0.4277437410375212  0.4705741377194618  0.5648201888195443
  0.4281841746339323  0.6104000818459402  0.6214470774639248
  0.4422475976985021  0.1229383212691930  0.5810567138189756
  0.1961172864524214  0.7334777997666151  0.7687235382901280
  0.5003572465387600  0.5036948272295492  0.1838852367028788
  0.5962634409782391  0.4470751976476070  0.5060741534934738
  0.3192093973251868  0.6663639978981748  0.5297025687072004
  0.4777234761675575  0.0492310413145389  0.5517544471914898
  0.1321285780224858  0.8890900123122348  0.6573906305902426
  0.2226071252031003  0.5550877624730146  0.9010491579192386
  0.0759430067769695  0.2617021601583853  0.4837672006101207
  0.0391103691713224  0.5522674222233542  0.4044748548317412
  0.2542940755655175  0.2216284729830551  0.7063180247213799
  0.0517507247542650  0.0717599521219314  0.4859177914023972
  0.4736000261679518  0.5460243248017062  0.6552315004783024
  0.6662341810097658  0.0964401483983468  0.2370227398569413
  0.3015008012451043  0.1698718042902825  0.3814802137180586
  0.1411676764113977  0.6381270426359456  0.3154465156728901
  0.8298982725276545  0.7096705789783517  0.5513534872779782
  0.1974971983191635  0.6082165674506766  0.7627924920207870
  0.0369685190362807  0.9444195233408078  0.7295802389590206
  0.8368434391846025  0.9731724141401922  0.8628207359046193
  0.2498482280200549  0.6285379597130458  0.4941310086645425
  0.0380602477623554  0.6054678302047672  0.2718940853929598
  0.8159676530241258  0.7303354165735858  0.3349253410346241
  0.4366426627505761  0.8183910475399080  0.1969422659050461
  0.1167047676484557  0.9924010194852578  0.0787945709250593
  0.6319317035773032  0.4248720148591659  0.2103886160997905
  0.6527632663214656  0.9275013786785603  0.3876231086984316
  0.6305104215334445  0.5064252760916345  0.3558460457853423
  0.5627747413889704  0.4465327638948731  0.6735323345371543
  0.8753381144963081  0.3000890798458523  0.5320069069112634
  0.1451120452014768  0.2427562755963726  0.8415085464443041
  0.6945650158391410  0.7112574574443298  0.4057466813404431
  0.8485989257977083  0.6319427157503145  0.4336575743841897
  0.2743234318165825  0.9557922620480097  0.7262735804623489
  0.7653306930833034  0.3434056245891546  0.2723816428132834
  0.5352901318262759  0.8655630413678905  0.7557362262883146
  0.0005584563342152  0.1111813606652674  0.5487093837679150
  0.7155276786751458  0.0488737297599582  0.4438025765071789
  0.1491935338797236  0.6193602592567540  0.0898139135737926
  0.2902310546174083  0.1781238924600175  0.0155827005707024
  0.0746109022409521  0.6575154482393173  0.8021630971392618
  0.8287064616427533  0.8028578475835075  0.3843576759101296
  0.0178178296408304  0.3135864470043860  0.7334886993340568
  0.3153726618660993  0.5915205232229144  0.2100627433977533
  0.5536034450387560  0.4094058829642903  0.8743573864847950
  0.4287957271659128  0.4294097428231740  0.7026940954851122
  0.7525256356657700  0.3163674692873538  0.4258751928824336
  0.6827961848459159  0.6861156952166800  0.6565845263605364
  0.7230283452671635  0.4870121765185703  0.1379778612944698
  0.5832717063601373  0.4135460210491455  0.0885119656479127
  0.1478613446576441  0.2145124852494508  0.5293186980788716
  0.0062126287328163  0.7828726825486358  0.1233670815817109
  0.2750440511658246  0.0008579765340238  0.5719117455540974
  0.4721844195795292  0.1389220603780992  0.4614297002867593
  0.4658042531613857  0.6400362214789820  0.7522192759434039
  0.6877431841090307  0.8455582915189557  0.3909013463608174
  0.1585476669458255  0.3621120545619805  0.5252232214853744
  0.4856836094410237  0.6860377448535229  0.3866568274499028
  0.5103869715656038  0.4669831207847587  0.8239240676020018
  0.3659456483265552  0.7251996850930372  0.0018605004587453
  0.1675515758261107  0.8497177646387514  0.9735388217922235
  0.6737528505264517  0.0131313278229463  0.6972917534255449
  0.3804905414083190  0.4805662686484906  0.2662947932404774
  0.8787170904104467  0.8514393419025958  0.5808763613435696
  0.7109004892314702  0.6462071556477710  0.4647766375990449
  0.9340413363616422  0.5307976059451580  0.7296176448559030
  0.4646938121177867  0.8361883917460481  0.1147972753132692
  0.5462774463213768  0.5956802075412289  0.3017581204010368
  0.5347711578943541  0.9069568589881265  0.8309482875198058
  0.1820999350156216  0.3640551310605042  0.8455564330603721
  0.5188779528761944  0.7727967033772841  0.7613012275531642
  0.8874083571473491  0.7946689402835300  0.8811481285279779
  0.2259157602953983  0.2861330558234585  0.7547147380039824
  0.0054618946308268  0.8378465839071149  0.8990974506341441
  0.5096266568736194  0.5816397260652694  0.9061303354231349
  0.1850017692319659  0.7571278843407206  0.3810210953324222
  0.9169515992903238  0.2056251227171028  0.7835428428800140
  0.9100205659209305  0.3572244321364649  0.9483315424905973
  0.0346023287025314  0.9835207878601825  0.5090837467377209
  0.4890323875697257  0.3505034127683397  0.7758754942096896
  0.2228996477405048  0.1647010584754076  0.7667479484324274
  0.5217504583743282  0.6958302369159527  0.6526455680264787
  0.2007733818993628  0.6333638953539187  0.8658452369091361
  0.1609971498730142  0.4638170225070086  0.2448836464010870
  0.1636637167633499  0.1542950495030839  0.9748833679222288
  0.7944852832181488  0.9555667371749424  0.7335465252289259
  0.2141673356858899  0.4757883602730936  0.5391866778438449
  0.8456602761380466  0.3174971349470996  0.2938401318874768
  0.6811217827952707  0.5031824101484635  0.4627554412089084
  0.4338202641401170  0.5055640876998180  0.3314776429202830
  0.4624938055940222  0.4728744091351013  0.1078959501933980
  0.5518897270388504  0.1471761894582628  0.4226686351439183
  0.3628991403885292  0.5958508091251218  0.9563609560565600
  0.0353623935597035  0.5052347247060476  0.8985797119101950
  0.1718611836989404  0.3445909835807616  0.0915695608062985
  0.2820056131764357  0.0606561095682155  0.9516200636862230
  0.3195795990772598  0.9824650626443184  0.1421536377877226
  0.4437538806477189  0.9562159359763367  0.2719285643227081
  0.5000590057720747  0.6473453757794819  0.9771005103812932
  0.8795094304438070  0.2776027685330367  0.9759123633583190
  0.1676146922750216  0.4151991551386647  0.9110325495760159
  0.7459289511148995  0.5169159531938423  0.9256817709005124
  0.2294731281893618  0.5311544863486699  0.7400402122618714
  0.0376740279662674  0.7983192477598609  0.7529755461255322
  0.7004680392857073  0.4170337209936869  0.6123420959737774
  0.6019704337274823  0.0810656706941004  0.8092211183784302
  0.2762883874219207  0.7938777532215209  0.5715173883624217
  0.8479030868849367  0.7474884998815724  0.1145281692825861
  0.3869844201266558  0.2775812760764264  0.5386189138320274
  0.5126487308217951  0.7588915239546047  0.0305138379902037
  0.6832275145967539  0.4440860914723314  0.0102630399025194
  0.3569884612461406  0.8804668202865670  0.0455686211298139
  0.3902306308388646  0.8055462695714517  0.0807842136461567
  0.9915294031734506  0.2958001104219151  0.9511834909835287
  0.0865340244886438  0.7744646334209687  0.0896335950150744
  0.2374789431672769  0.1114041979522311  0.0038810352322292
  0.1080484286659560  0.1524515388242398  0.3311741106780490
  0.1288439198943220  0.8537950651905400  0.2954791170223285
  0.7249160844108693  0.7358073891607140  0.2161950000217223
  0.0186149130724495  0.2680383123419214  0.0873941061303736
  0.2295410137614329  0.8107874847778342  0.0215626439363417
  0.7517569911030526  0.1212472646644362  0.2442463235843810
  0.3203275824173407  0.8265046752957934  0.2357759280949421
  0.5811094034042359  0.1599447346546834  0.5533395895957879
  0.3086149473474705  0.5426491676483559  0.9074102087204919
  0.7016758147610921  0.8185375896532991  0.3116113189986767
  0.7880034135222024  0.5874081304925004  0.2170310893923988