1                                       
   1.00000000000000     
    17.1234598580177817   -0.3659298189549828   -0.4288482613892672
    -0.3635090753918291   16.1487250298115868    0.2618709317456668
    -0.4294687219314325    0.2624463074646733   15.9941620134628444
   Si
   216
Direct
  0.9024923581473010  0.3354493739897196  0.3104478067977420
  0.8951934912621098  0.3109568968567175  0.0017643753762424
  0.6479324814950482  0.4137311174829839  0.5384728565410014
  0.6833485513616931  0.3219920814779179  0.7710362932880136
  0.7437885721958390  0.4732364156358353  0.0280572471262262
  0.6111617429248657  0.3092315530052434  0.6403814019732710
  0.8431334930726728  0.3253595789212677  0.4433893273355332
  0.0290692334102912  0.4133569027818154  0.5789578636105486
  0.1639020564928395  0.5582838387363287  0.4451354353435634
  0.5563673126517211  0.7099126974564965  0.3957402204869154
  0.0147853095553561  0.1915635750091644  0.5436919608376128
  0.9922103045049958  0.7382880126228656  0.4585430842981635
  0.7903617086722128  0.2370711122616887  0.7879697006507366
  0.7695225238790327  0.9707859663161525  0.4012373780165245
  0.7776296590783583  0.7768286379864225  0.3858073426601792
  0.5317553228211530  0.6260727991129494  0.7837537921168940
  0.6019499946564665  0.5464016953709767  0.5653954386938723
  0.0085891838881610  0.8681136165792941  0.6169029690424287
  0.5156713887306619  0.4050157346528210  0.6819908658135666
  0.4586051337476321  0.3627446681534843  0.0357523336808154
  0.3540338217970423  0.3314756948842926  0.2710049192560316
  0.9165825349036375  0.4867957646966342  0.8691765065471064
  0.7804656484963004  0.5476593900275435  0.2498887929413285
  0.6557462255054618  0.7562196411967935  0.9482751268698867
  0.4017683934243118  0.7973926995424946  0.6435698235186167
  0.7832495548261768  0.5679945381570126  0.6763922219674071
  0.6008155694231255  0.9732193225993151  0.6217095913527141
  0.7804526090762802  0.9139200272172582  0.5462787189681003
  0.1817738740587492  0.8075535710502191  0.0615379734916037
  0.4190494573923604  0.2124733219644036  0.3365215622336912
  0.3646992997894022  0.6499030406238391  0.8990134540953044
  0.7821282509918112  0.5119382038697107  0.8837466615509070
  0.3755430561477627  0.6801340919406250  0.5305601506340343
  0.6933511944553081  0.8726331141300694  0.3224442161476687
  0.3838869946150668  0.4781000432408129  0.2796949781808215
  0.9978105488982383  0.8863083429218268  0.0708244199103370
  0.6428646231308515  0.8722940348657503  0.5268495251781182
  0.3659641558823686  0.8507911346597797  0.7728045927530648
  0.9999281767840770  0.0548803827581818  0.8174950579583687
  0.9197667012224732  0.1327761571698857  0.3719992393966242
  0.4348557919436719  0.8877389708225371  0.2106088811447954
  0.2478591027328886  0.4336730443571562  0.0574333750296060
  0.1598707951429412  0.6589076234992073  0.0396859807275958
  0.7704973909348564  0.0987335454429495  0.8495011038143269
  0.7182663549023837  0.6234103256006374  0.5522859566585170
  0.3752405572066384  0.6878305296267853  0.2777952060861646
  0.8528825656759086  0.8886919668885195  0.7755497582409496
  0.2870542959522957  0.7643979433732841  0.8564061628959596
  0.9056607043270617  0.2497752846792878  0.8751015069332534
  0.1260849990658600  0.8988969407522408  0.5396474581670304
  0.7639481644097145  0.4382573695613127  0.4651042476010295
  0.5921695988582596  0.3133001712212182  0.2715070580484870
  0.8422800242882388  0.6465812761517408  0.8931915712819648
  0.7332234671327068  0.0222630699946442  0.6195091087053231
  0.6078392655029842  0.2772801943456051  0.8905683317209143
  0.0594749440197113  0.8169008900629794  0.8370365609257561
  0.3771895014667798  0.0147530040574342  0.2350933653192920
  0.2366756565484555  0.8613877797112829  0.6223879105269348
  0.1549627132976247  0.7490424252224691  0.3139879747218641
  0.3860391001560879  0.0869970566379031  0.0078515204130472
  0.3909507931530017  0.6069383461748751  0.0395681734145400
  0.2072782200283556  0.1180766733802078  0.5835247160216893
  0.7647087654393429  0.6009062686221731  0.1135211385014224
  0.8902292406370143  0.4616884114690273  0.2317757981448741
  0.0160480611754468  0.3186259428621562  0.0912603711615825
  0.5815487118178230  0.7409885740097772  0.1469287344761982
  0.2906514719604032  0.5777904377314798  0.2333005458276764
  0.0905271235675943  0.6568899264301685  0.6649662615909415
  0.5751922416906912  0.3250872694012666  0.1189193770529486
  0.4674132062086945  0.2521623112384849  0.7310149420446185
  0.6594569635384843  0.6952935153550946  0.8185057540383983
  0.6758065187866836  0.7422031425649019  0.4781435331745799
  0.3967877523144718  0.5761395920629571  0.3857140527919451
  0.4847718665642529  0.1028928041787836  0.2814161203966319
  0.2882255011556878  0.8000728922499106  0.3157832876855823
  0.4977381581976172  0.9352301796616544  0.9892692120034530
  0.5993332350455958  0.9340591080523266  0.7669418795610352
  0.3197459492896346  0.0708777052707043  0.6575756339110183
  0.2774687216442013  0.9514826577898428  0.7317216919632158
  0.2989989843032304  0.5617946483418635  0.4809137517347831
  0.2646652964208260  0.5754661283930599  0.0893343191444777
  0.9850784615177427  0.6125639691640443  0.9068769042770071
  0.9814566147090691  0.7415414123993971  0.0964098336372536
  0.1928098768773599  0.2195498034092422  0.9722310538280274
  0.3157960093080199  0.1035556230637437  0.1295729453000686
  0.9771309183631015  0.7205643744479008  0.6054931687167169
  0.6549845025774437  0.8116866302819850  0.7238070528149853
  0.8244228212814515  0.5722884147646149  0.4824259127656347
  0.2957832131346904  0.2143881422662127  0.5202575923633042
  0.8975479640371643  0.0763137110601612  0.0562412609017956
  0.7847489111570000  0.6809445758056956  0.7614155730844978
  0.5867780565517616  0.9156313428580913  0.3943542547706534
  0.8435947334018309  0.8623601121237970  0.1665643092350374
  0.9319371922846499  0.3037700365184220  0.5635375487089870
  0.0263129142924949  0.7555284763391896  0.2428741324200220
  0.0819107238173974  0.5159610710909046  0.2400804121035483
  0.3502353969143343  0.8975809672853938  0.5441710207416064
  0.0224176730473989  0.4383485112191556  0.8003547948229744
  0.6384470931070164  0.8762606540685417  0.1143598262022801
  0.2340016585055217  0.3370568539198974  0.4793900130331920
  0.1306095417872779  0.3832879573663894  0.2594980720799415
  0.1035630942852625  0.0084385926997650  0.9075920442426472
  0.1554617701422910  0.7351825266997924  0.7855537595328447
  0.0488977039454373  0.1911614892433047  0.4059472147351234
  0.6456192868386614  0.6554915959666801  0.0634428624319071
  0.4180658486873382  0.2570177369601434  0.5856517771463687
  0.9168894970435857  0.9305918672669581  0.5251683363127723
  0.8012075342615106  0.1864836719693382  0.4238306951017646
  0.4722651441909897  0.3050027581676688  0.8994434601947406
  0.1076611580893461  0.4631094734538569  0.9229948217628431
  0.4944070794207078  0.6160888592427490  0.4895083734956396
  0.9900269262323674  0.4626526166270344  0.1269917456582843
  0.4115422148457520  0.8452353501168495  0.0672144260005812
  0.4220558868946978  0.3920033719022191  0.7879507163428657
  0.5915531122681593  0.5250974772000082  0.7098280643225443
  0.4450409823740665  0.3984024888651379  0.5525263323086572
  0.9001682781206485  0.1068651961133424  0.9108986306732791
  0.9038798521656083  0.5893354099838433  0.6125410500198901
  0.5286995058227116  0.0661483790867383  0.5354343717744513
  0.8045850922748516  0.1350042177495236  0.5634909928690760
  0.6288018457033047  0.8969880089336211  0.9681483231047885
  0.0271469661271237  0.2932149344329690  0.8274941938351074
  0.0256592765304975  0.0882282722310638  0.1180302169503625
  0.4288389218291674  0.1617129011296758  0.8858930326000470
  0.1629472476075347  0.6700980952006068  0.5413115474694761
  0.9120236013010019  0.2058612639358041  0.2440585996060839
  0.0198294712270166  0.5225271312180105  0.6725563095848360
  0.2397608289830314  0.4385727769424597  0.6712061603835077
  0.5574362833319607  0.4717278362322767  0.1076453872136017
  0.7907627502820177  0.7457858814605207  0.9748562318086889
  0.7117790268298534  0.4701862383539160  0.7600358966167181
  0.8896700262303374  0.9937697586857687  0.3368598952036512
  0.1214156308700845  0.2067830766279247  0.6400280890917521
  0.2835870404916318  0.5747257472338719  0.7179187494892404
  0.8614301969250185  0.2242810594598581  0.6658123684761610
  0.7353166708694756  0.9339992702141413  0.2017245838265519
  0.3472092779220962  0.3485574905563422  0.1191538189810740
  0.8674140704221864  0.8525431600661499  0.9196975884735287
  0.3385222025038237  0.1698899033684724  0.7657324643605117
  0.9610211093615686  0.6628182390917189  0.3386166695729108
  0.6057809129254573  0.5377201932348531  0.9873828691723457
  0.5664204855450828  0.1306282439493838  0.9049897652025370
  0.5426759317954957  0.2106003541133551  0.5486614706070176
  0.1788454578840096  0.9121658593687409  0.1685021383249772
  0.1493126909932256  0.1801713907838177  0.3091006404920883
  0.8162613386550147  0.1479966993137659  0.1465247192016667
  0.4755931804204254  0.7247713269914928  0.0514966945084959
  0.9293669712907088  0.0723274901882150  0.5540492995046346
  0.2197300803324174  0.1674452580106956  0.8383289935754312
  0.4645054523922757  0.5041643392461121  0.9767008861229850
  0.1172387694437859  0.1011535975614013  0.0148944049553201
  0.7714172487982238  0.3810975872408317  0.1593982092840910
  0.4978896198377052  0.8422169285365418  0.8178791284340928
  0.1300870347432118  0.0401114659565389  0.4815331349860058
  0.2219910543492364  0.0188540437249623  0.8437904082187758
  0.3324492789416926  0.1241692994399357  0.4189836242900607
  0.5727459330504148  0.0596061020603306  0.3950463104699802
  0.4769358703302310  0.8290366925476358  0.3595679017088895
  0.0914611210761914  0.3184207808339453  0.9619674995025049
  0.7053904052782315  0.0949571481351866  0.3620599422703407
  0.2474408400570730  0.5699677670147654  0.8585140719918773
  0.2146400637911408  0.0184999828402624  0.0737169477038086
  0.0421848565324668  0.2074963704498468  0.1971926347781701
  0.4079392810210678  0.5468944561842450  0.8050060923309370
  0.3170623104399598  0.4357378058046613  0.5495868360607971
  0.1224434178362710  0.7816786941316080  0.4531236301723498
  0.0567059457262746  0.4521935603363886  0.4412537208994968
  0.1488492366433924  0.3471136783343752  0.5943706147342176
  0.5018212822274074  0.7186354953467814  0.9067052628674971
  0.9547469387707113  0.8842411945548045  0.2620850224727991
  0.7105066802714370  0.0778219293908543  0.2139012624668702
  0.7313259276489336  0.3106772657636124  0.2821639010873683
  0.0913025979479199  0.8772319428034440  0.9697871056498029
  0.8440342202033666  0.7259090151413417  0.1114535613022564
  0.6510442476133258  0.0204950556199929  0.8768964049597647
  0.5362333775024196  0.3981032568751779  0.4474714347932953
  0.9758666588334266  0.7596451925694713  0.9391075697409145
  0.3271889778564391  0.3103258608585623  0.7089515266704559
  0.5732881787471201  0.4509708628577700  0.3169657525911552
  0.0530199669509711  0.9592149657359910  0.1860935187925025
  0.7838244195089769  0.8051413782348025  0.6734900316322805
  0.3905090492221057  0.0407141184694892  0.5342947146310801
  0.0381898537228071  0.3331314205929659  0.3547678465440546
  0.8868442035320631  0.4552313403397948  0.0095374140638075
  0.8254936219088965  0.6469078887698474  0.3489763165561010
  0.2650131126472373  0.9457256062340503  0.2857146954827268
  0.2612922289542835  0.2346099569401566  0.1023875994431417
  0.0900685854098165  0.1791752698001165  0.7788639483249914
  0.5247879827495896  0.7518939056272081  0.7022257444772558
  0.2936791125923682  0.8379445382504057  0.9852910837334312
  0.1325779244574677  0.6360842128961126  0.8929453441161109
  0.2280820337080622  0.3116059093921634  0.3322666133066272
  0.5205889022830742  0.0754264901123883  0.0357090227810966
  0.3643288495685508  0.8017475348473969  0.4412356203938361
  0.0537216948343465  0.5551540002823107  0.0249361954891625
  0.7867796686128116  0.2684309850617447  0.0736193566552299
  0.1615678299975507  0.3335956349791119  0.1271362617375881
  0.9826396014408109  0.5218190135631556  0.3350576470751771
  0.5005424806391836  0.5305851214936536  0.2203852452906003
  0.7098573870460518  0.4471351642554152  0.3273890845664061
  0.5757206607835684  0.1010153716424618  0.1723550161536598
  0.9877889857178453  0.9129661809100472  0.7545513880281572
  0.9082499105093406  0.8437557984291847  0.4059551329574814
  0.2147074239061880  0.0536686184634178  0.3670577771599358
  0.5345380545933281  0.2618954466021195  0.4054972038297723
  0.5400203991247754  0.9582428874105231  0.1502446615436811
  0.2180014734779879  0.3437404678190245  0.7908098782490943
  0.5135052741396114  0.6739740989130566  0.2571136929740521
  0.6736744823651031  0.3299606762255820  0.0161050792326394
  0.1766604678439903  0.6057163249932267  0.3039287248032348
  0.2930489903579825  0.9813033487024656  0.9657278036421608
  0.2716578646014801  0.7069822650886649  0.6360312052816588
  0.8083153614198259  0.0202507432627412  0.7430829820589339
  0.9189730233884694  0.0946814152776481  0.6949982417524248
  0.8733986099495443  0.9339733368278433  0.0399515071934823
  0.2426360158899683  0.4324015186765900  0.9080505399559057
 
  0.00000000E+00  0.00000000E+00  0.00000000E+00
  0.00000000E+00  0.00000000E+00  0.00000000E+00
  0.00000000E+00  0.00000000E+00  0.00000000E+00
  0.00000000E+00  0.00000000E+00  0.00000000E+00
  0.00000000E+00  0.00000000E+00  0.00000000E+00
  0.00000000E+00  0.00000000E+00  0.00000000E+00
  0.00000000E+00  0.00000000E+00  0.00000000E+00
  0.00000000E+00  0.00000000E+00  0.00000000E+00
  0.00000000E+00  0.00000000E+00  0.00000000E+00
  0.00000000E+00  0.00000000E+00  0.00000000E+00
  0.00000000E+00  0.00000000E+00  0.00000000E+00
  0.00000000E+00  0.00000000E+00  0.00000000E+00
  0.00000000E+00  0.00000000E+00  0.00000000E+00
  0.00000000E+00  0.00000000E+00  0.00000000E+00
  0.00000000E+00  0.00000000E+00  0.00000000E+00
  0.00000000E+00  0.00000000E+00  0.00000000E+00
  0.00000000E+00  0.00000000E+00  0.00000000E+00
  0.00000000E+00  0.00000000E+00  0.00000000E+00
  0.00000000E+00  0.00000000E+00  0.00000000E+00
  0.00000000E+00  0.00000000E+00  0.00000000E+00
  0.00000000E+00  0.00000000E+00  0.00000000E+00
  0.00000000E+00  0.00000000E+00  0.00000000E+00
  0.00000000E+00  0.00000000E+00  0.00000000E+00
  0.00000000E+00  0.00000000E+00  0.00000000E+00
  0.00000000E+00  0.00000000E+00  0.00000000E+00
  0.00000000E+00  0.00000000E+00  0.00000000E+00
  0.00000000E+00  0.00000000E+00  0.00000000E+00
  0.00000000E+00  0.00000000E+00  0.00000000E+00
  0.00000000E+00  0.00000000E+00  0.00000000E+00
  0.00000000E+00  0.00000000E+00  0.00000000E+00
  0.00000000E+00  0.00000000E+00  0.00000000E+00
  0.00000000E+00  0.00000000E+00  0.00000000E+00
  0.00000000E+00  0.00000000E+00  0.00000000E+00
  0.00000000E+00  0.00000000E+00  0.00000000E+00
  0.00000000E+00  0.00000000E+00  0.00000000E+00
  0.00000000E+00  0.00000000E+00  0.00000000E+00
  0.00000000E+00  0.00000000E+00  0.00000000E+00
  0.00000000E+00  0.00000000E+00  0.00000000E+00
  0.00000000E+00  0.00000000E+00  0.00000000E+00
  0.00000000E+00  0.00000000E+00  0.00000000E+00
  0.00000000E+00  0.00000000E+00  0.00000000E+00
  0.00000000E+00  0.00000000E+00  0.00000000E+00
  0.00000000E+00  0.00000000E+00  0.00000000E+00
  0.00000000E+00  0.00000000E+00  0.00000000E+00
  0.00000000E+00  0.00000000E+00  0.00000000E+00
  0.00000000E+00  0.00000000E+00  0.00000000E+00
  0.00000000E+00  0.00000000E+00  0.00000000E+00
  0.00000000E+00  0.00000000E+00  0.00000000E+00
  0.00000000E+00  0.00000000E+00  0.00000000E+00
  0.00000000E+00  0.00000000E+00  0.00000000E+00
  0.00000000E+00  0.00000000E+00  0.00000000E+00
  0.00000000E+00  0.00000000E+00  0.00000000E+00
  0.00000000E+00  0.00000000E+00  0.00000000E+00
  0.00000000E+00  0.00000000E+00  0.00000000E+00
  0.00000000E+00  0.00000000E+00  0.00000000E+00
  0.00000000E+00  0.00000000E+00  0.00000000E+00
  0.00000000E+00  0.00000000E+00  0.00000000E+00
  0.00000000E+00  0.00000000E+00  0.00000000E+00
  0.00000000E+00  0.00000000E+00  0.00000000E+00
  0.00000000E+00  0.00000000E+00  0.00000000E+00
  0.00000000E+00  0.00000000E+00  0.00000000E+00
  0.00000000E+00  0.00000000E+00  0.00000000E+00
  0.00000000E+00  0.00000000E+00  0.00000000E+00
  0.00000000E+00  0.00000000E+00  0.00000000E+00
  0.00000000E+00  0.00000000E+00  0.00000000E+00
  0.00000000E+00  0.00000000E+00  0.00000000E+00
  0.00000000E+00  0.00000000E+00  0.00000000E+00
  0.00000000E+00  0.00000000E+00  0.00000000E+00
  0.00000000E+00  0.00000000E+00  0.00000000E+00
  0.00000000E+00  0.00000000E+00  0.00000000E+00
  0.00000000E+00  0.00000000E+00  0.00000000E+00
  0.00000000E+00  0.00000000E+00  0.00000000E+00
  0.00000000E+00  0.00000000E+00  0.00000000E+00
  0.00000000E+00  0.00000000E+00  0.00000000E+00
  0.00000000E+00  0.00000000E+00  0.00000000E+00
  0.00000000E+00  0.00000000E+00  0.00000000E+00
  0.00000000E+00  0.00000000E+00  0.00000000E+00
  0.00000000E+00  0.00000000E+00  0.00000000E+00
  0.00000000E+00  0.00000000E+00  0.00000000E+00
  0.00000000E+00  0.00000000E+00  0.00000000E+00
  0.00000000E+00  0.00000000E+00  0.00000000E+00
  0.00000000E+00  0.00000000E+00  0.00000000E+00
  0.00000000E+00  0.00000000E+00  0.00000000E+00
  0.00000000E+00  0.00000000E+00  0.00000000E+00
  0.00000000E+00  0.00000000E+00  0.00000000E+00
  0.00000000E+00  0.00000000E+00  0.00000000E+00
  0.00000000E+00  0.00000000E+00  0.00000000E+00
  0.00000000E+00  0.00000000E+00  0.00000000E+00
  0.00000000E+00  0.00000000E+00  0.00000000E+00
  0.00000000E+00  0.00000000E+00  0.00000000E+00
  0.00000000E+00  0.00000000E+00  0.00000000E+00
  0.00000000E+00  0.00000000E+00  0.00000000E+00
  0.00000000E+00  0.00000000E+00  0.00000000E+00
  0.00000000E+00  0.00000000E+00  0.00000000E+00
  0.00000000E+00  0.00000000E+00  0.00000000E+00
  0.00000000E+00  0.00000000E+00  0.00000000E+00
  0.00000000E+00  0.00000000E+00  0.00000000E+00
  0.00000000E+00  0.00000000E+00  0.00000000E+00
  0.00000000E+00  0.00000000E+00  0.00000000E+00
  0.00000000E+00  0.00000000E+00  0.00000000E+00
  0.00000000E+00  0.00000000E+00  0.00000000E+00
  0.00000000E+00  0.00000000E+00  0.00000000E+00
  0.00000000E+00  0.00000000E+00  0.00000000E+00
  0.00000000E+00  0.00000000E+00  0.00000000E+00
  0.00000000E+00  0.00000000E+00  0.00000000E+00
  0.00000000E+00  0.00000000E+00  0.00000000E+00
  0.00000000E+00  0.00000000E+00  0.00000000E+00
  0.00000000E+00  0.00000000E+00  0.00000000E+00
  0.00000000E+00  0.00000000E+00  0.00000000E+00
  0.00000000E+00  0.00000000E+00  0.00000000E+00
  0.00000000E+00  0.00000000E+00  0.00000000E+00
  0.00000000E+00  0.00000000E+00  0.00000000E+00
  0.00000000E+00  0.00000000E+00  0.00000000E+00
  0.00000000E+00  0.00000000E+00  0.00000000E+00
  0.00000000E+00  0.00000000E+00  0.00000000E+00
  0.00000000E+00  0.00000000E+00  0.00000000E+00
  0.00000000E+00  0.00000000E+00  0.00000000E+00
  0.00000000E+00  0.00000000E+00  0.00000000E+00
  0.00000000E+00  0.00000000E+00  0.00000000E+00
  0.00000000E+00  0.00000000E+00  0.00000000E+00
  0.00000000E+00  0.00000000E+00  0.00000000E+00
  0.00000000E+00  0.00000000E+00  0.00000000E+00
  0.00000000E+00  0.00000000E+00  0.00000000E+00
  0.00000000E+00  0.00000000E+00  0.00000000E+00
  0.00000000E+00  0.00000000E+00  0.00000000E+00
  0.00000000E+00  0.00000000E+00  0.00000000E+00
  0.00000000E+00  0.00000000E+00  0.00000000E+00
  0.00000000E+00  0.00000000E+00  0.00000000E+00
  0.00000000E+00  0.00000000E+00  0.00000000E+00
  0.00000000E+00  0.00000000E+00  0.00000000E+00
  0.00000000E+00  0.00000000E+00  0.00000000E+00
  0.00000000E+00  0.00000000E+00  0.00000000E+00
  0.00000000E+00  0.00000000E+00  0.00000000E+00
  0.00000000E+00  0.00000000E+00  0.00000000E+00
  0.00000000E+00  0.00000000E+00  0.00000000E+00
  0.00000000E+00  0.00000000E+00  0.00000000E+00
  0.00000000E+00  0.00000000E+00  0.00000000E+00
  0.00000000E+00  0.00000000E+00  0.00000000E+00
  0.00000000E+00  0.00000000E+00  0.00000000E+00
  0.00000000E+00  0.00000000E+00  0.00000000E+00
  0.00000000E+00  0.00000000E+00  0.00000000E+00
  0.00000000E+00  0.00000000E+00  0.00000000E+00
  0.00000000E+00  0.00000000E+00  0.00000000E+00
  0.00000000E+00  0.00000000E+00  0.00000000E+00
  0.00000000E+00  0.00000000E+00  0.00000000E+00
  0.00000000E+00  0.00000000E+00  0.00000000E+00
  0.00000000E+00  0.00000000E+00  0.00000000E+00
  0.00000000E+00  0.00000000E+00  0.00000000E+00
  0.00000000E+00  0.00000000E+00  0.00000000E+00
  0.00000000E+00  0.00000000E+00  0.00000000E+00
  0.00000000E+00  0.00000000E+00  0.00000000E+00
  0.00000000E+00  0.00000000E+00  0.00000000E+00
  0.00000000E+00  0.00000000E+00  0.00000000E+00
  0.00000000E+00  0.00000000E+00  0.00000000E+00
  0.00000000E+00  0.00000000E+00  0.00000000E+00
  0.00000000E+00  0.00000000E+00  0.00000000E+00
  0.00000000E+00  0.00000000E+00  0.00000000E+00
  0.00000000E+00  0.00000000E+00  0.00000000E+00
  0.00000000E+00  0.00000000E+00  0.00000000E+00
  0.00000000E+00  0.00000000E+00  0.00000000E+00
  0.00000000E+00  0.00000000E+00  0.00000000E+00
  0.00000000E+00  0.00000000E+00  0.00000000E+00
  0.00000000E+00  0.00000000E+00  0.00000000E+00
  0.00000000E+00  0.00000000E+00  0.00000000E+00
  0.00000000E+00  0.00000000E+00  0.00000000E+00
  0.00000000E+00  0.00000000E+00  0.00000000E+00
  0.00000000E+00  0.00000000E+00  0.00000000E+00
  0.00000000E+00  0.00000000E+00  0.00000000E+00
  0.00000000E+00  0.00000000E+00  0.00000000E+00
  0.00000000E+00  0.00000000E+00  0.00000000E+00
  0.00000000E+00  0.00000000E+00  0.00000000E+00
  0.00000000E+00  0.00000000E+00  0.00000000E+00
  0.00000000E+00  0.00000000E+00  0.00000000E+00
  0.00000000E+00  0.00000000E+00  0.00000000E+00
  0.00000000E+00  0.00000000E+00  0.00000000E+00
  0.00000000E+00  0.00000000E+00  0.00000000E+00
  0.00000000E+00  0.00000000E+00  0.00000000E+00
  0.00000000E+00  0.00000000E+00  0.00000000E+00
  0.00000000E+00  0.00000000E+00  0.00000000E+00
  0.00000000E+00  0.00000000E+00  0.00000000E+00
  0.00000000E+00  0.00000000E+00  0.00000000E+00
  0.00000000E+00  0.00000000E+00  0.00000000E+00
  0.00000000E+00  0.00000000E+00  0.00000000E+00
  0.00000000E+00  0.00000000E+00  0.00000000E+00
  0.00000000E+00  0.00000000E+00  0.00000000E+00
  0.00000000E+00  0.00000000E+00  0.00000000E+00
  0.00000000E+00  0.00000000E+00  0.00000000E+00
  0.00000000E+00  0.00000000E+00  0.00000000E+00
  0.00000000E+00  0.00000000E+00  0.00000000E+00
  0.00000000E+00  0.00000000E+00  0.00000000E+00
  0.00000000E+00  0.00000000E+00  0.00000000E+00
  0.00000000E+00  0.00000000E+00  0.00000000E+00
  0.00000000E+00  0.00000000E+00  0.00000000E+00
  0.00000000E+00  0.00000000E+00  0.00000000E+00
  0.00000000E+00  0.00000000E+00  0.00000000E+00
  0.00000000E+00  0.00000000E+00  0.00000000E+00
  0.00000000E+00  0.00000000E+00  0.00000000E+00
  0.00000000E+00  0.00000000E+00  0.00000000E+00
  0.00000000E+00  0.00000000E+00  0.00000000E+00
  0.00000000E+00  0.00000000E+00  0.00000000E+00
  0.00000000E+00  0.00000000E+00  0.00000000E+00
  0.00000000E+00  0.00000000E+00  0.00000000E+00
  0.00000000E+00  0.00000000E+00  0.00000000E+00
  0.00000000E+00  0.00000000E+00  0.00000000E+00
  0.00000000E+00  0.00000000E+00  0.00000000E+00
  0.00000000E+00  0.00000000E+00  0.00000000E+00
  0.00000000E+00  0.00000000E+00  0.00000000E+00
  0.00000000E+00  0.00000000E+00  0.00000000E+00
  0.00000000E+00  0.00000000E+00  0.00000000E+00
  0.00000000E+00  0.00000000E+00  0.00000000E+00
  0.00000000E+00  0.00000000E+00  0.00000000E+00
  0.00000000E+00  0.00000000E+00  0.00000000E+00
  0.00000000E+00  0.00000000E+00  0.00000000E+00
  0.00000000E+00  0.00000000E+00  0.00000000E+00
  0.00000000E+00  0.00000000E+00  0.00000000E+00
  0.00000000E+00  0.00000000E+00  0.00000000E+00
