1   
      1.000000000000
     26.930696487427        0.000000000000        0.000000000000
      0.000000000000       26.930696487427        0.000000000000
      0.000000000000        0.000000000000       26.930696487427
Si
 1000 
Direct
     -0.698763072491      -0.243249163032       0.490917026997 
      0.042077817023       0.008040771820      -0.183551564813 
     -0.353185534477       0.102061636746       0.364592999220 
      0.084214441478       0.484127998352       0.190700501204 
     -0.381869405508      -0.073696866632       0.615835189819 
      0.082641668618       0.049999717623       0.311089187860 
     -0.394727319479      -0.368437528610       0.321389526129 
     -0.116419620812      -0.270412027836      -0.328435659409 
      0.240156441927       0.109952829778       0.468798547983 
     -0.046081271023       0.468637794256       0.304777234793 
      0.240194216371       0.024696934968       0.486667364836 
      0.411428570747       0.505860209465       0.228339210153 
      0.560065507889      -0.233194947243      -0.265825778246 
     -0.012461434118      -0.380455642939       0.079193904996 
      0.528193414211      -0.599753677845       0.340579599142 
      0.339622318745       0.453126013279      -0.019358124584 
      0.742691636086      -0.258974909782      -0.093038827181 
      0.434117943048      -0.092269092798      -0.182494625449 
      0.443984389305       0.174675270915      -0.045663479716 
     -0.007387626451       0.171321108937       0.101336181164 
      0.081695161760      -0.144851863384      -0.358150333166 
     -0.013153387234       0.043637901545       0.008435461670 
     -0.294155865908       0.258876383305      -0.249275460839 
      0.005680592731       0.162197485566      -0.336257904768 
     -0.085138961673       0.008426715620       0.264825433493 
      0.801451683044       0.405954778194      -0.291244208813 
     -0.254814922810       0.457927256823       0.184105396271 
      0.113654784858       0.081310994923       0.235554531217 
     -0.457285463810       0.292586058378      -0.241692081094 
      0.299826174974      -0.162306994200      -0.273128300905 
      0.213911533356       0.382865905762      -0.024283578619 
      0.212886601686      -0.075466886163      -0.147456586361 
      0.036247402430      -0.079490751028      -0.066688649356 
      0.155005678535       0.136766448617       0.391751408577 
      0.263330459595      -0.098866522312       0.042854730040 
      0.241486355662       0.362721264362       0.167609632015 
      0.002199486597      -0.189105823636      -0.538881540298 
      0.223937347531       0.847644746304       0.171492725611 
      0.282426327467       0.077612660825      -0.209757089615 
      0.418157100677       0.100012503564       0.159261971712 
      0.047092672437       0.383322328329       0.143562152982 
      0.173670142889       0.547458350658      -0.338810116053 
      0.382115304470       0.505921781063       0.144935369492 
      0.725915431976       0.430986642838      -0.156815305352 
      0.181639596820       0.289871335030      -0.101840399206 
      0.311587274075       0.422587007284      -0.163229122758 
      0.296860367060       0.696615815163      -0.224087908864 
      0.331771254539       0.325365573168       0.031947150826 
      0.735746979713       0.376799136400      -0.344074666500 
      0.626346468925       0.085317596793       0.157938584685 
     -0.356862038374      -0.141983777285      -0.282898932695 
     -0.450777858496      -0.095080770552       0.925979197025 
     -0.159965127707      -0.034638207406       0.960752606392 
      0.123194105923       0.108028747141       0.617003381252 
     -0.088270463049      -0.106116347015       0.897061944008 
     -0.014644049108       0.164265334606       0.448945701122 
      0.245353743434       0.301233291626       0.391812264919 
      0.207292005420       0.625196337700      -0.308082371950 
     -0.116750299931       0.197593793273       0.524093151093 
      0.540742576122       0.718034148216       0.142831951380 
      0.139602243900       0.231567725539       0.065904550254 
     -0.036320429295       0.223673954606       0.613147079945 
      0.086513124406      -0.032809622586       0.280226528645 
      0.493016034365      -0.105034738779       0.589014887810 
      0.427072435617       0.377158939838      -0.097294203937 
      0.311225205660       0.370460331440       0.321747303009 
      0.384355187416       0.267102628946       0.296447336674 
      0.482927381992      -0.027325814590       0.152362912893 
      0.816906094551       0.490258246660       0.382182151079 
      0.447307556868       0.416603356600       0.371712833643 
     -0.713892281055       0.151727959514       0.172019198537 
      0.067444816232       0.363323092461       1.061554193497 
     -0.392222613096       0.163149908185       0.287342905998 
      0.105063036084       0.025012342259      -0.362187743187 
      0.047195345163       0.520783305168      -0.004293895327 
     -0.045142363757       0.496730029583       0.666954815388 
      0.355613380671       0.725971877575       0.298814684153 
      0.318375706673       0.747775256634       0.159085139632 
     -0.103189997375       0.512127935886       0.111101076007 
      0.584828555584       0.009538287297      -0.378971874714 
      0.411993414164      -0.104673758149      -0.270405620337 
      0.476395130157       0.306966662407       0.206948935986 
      0.124933272600       0.039056487381      -0.006020523608 
     -0.070846639574       0.339913696051       0.707582831383 
      0.918289244175       0.657868981361       0.168102905154 
      0.296414643526       0.642713487148      -0.102535471320 
      0.197767660022       0.150114744902       0.153306826949 
      0.410710036755      -0.004265969153       0.371038109064 
      0.423835575581      -0.050152081996      -0.058873027563 
      0.709351360798       0.346936762333       0.200101107359 
      0.393777728081       0.698705613613      -0.147869586945 
      0.048831839114       0.170599192381       0.740840852261 
      0.151538237929       0.712633311749       0.033918872476 
      0.244310334325       1.050297617912       0.273297667503 
      0.042192265391       0.487866312265       0.300827085972 
     -0.016769474372       0.748369514942       0.233172208071 
      0.277276039124       0.221790760756      -0.118676304817 
      0.098461017013       0.835779607296       0.556535720825 
      0.371555387974       0.445365428925      -0.101819001138 
      0.504806578159       0.088825568557       0.159313410521 
      0.041451737285       0.054278843105       0.741617679596 
      0.157633155584       0.347845703363       0.181065142155 
      0.256555646658       0.180412739515       0.665468156338 
      0.031662091613       0.699791431427       0.718174636364 
      0.206506982446       0.980383455753       0.418365925550 
      0.407647699118       0.083656713367       0.375504285097 
      0.243502289057       0.357010781765       0.601770281792 
      0.284672766924       0.500491976738       0.238821417093 
      0.555765450001      -0.326103866100       0.008219691925 
      0.618921041489      -0.178936779499       0.295744985342 
      0.274315834045       0.703300774097       0.275384902954 
      0.055681124330       0.637914001942       0.324380159378 
     -0.189240753651       0.173193573952       0.762235224247 
      0.220285922289       0.666718840599       0.214959472418 
      0.140254467726       0.179977789521       0.665631651878 
     -0.022769453004       0.742675721645       0.368612647057 
     -0.125329822302       0.211442589760       0.614320158958 
      0.557760357857       0.487004429102      -0.027463136241 
      0.187678143382       0.393238395452       0.294388651848 
      0.613898575306       0.306546717882       0.383688479662 
      0.589614331722       0.119666270912      -0.058433737606 
     -0.138607546687      -0.012564537115       0.822110116482 
     -0.103849001229       0.656772732735       0.493727415800 
     -0.232377007604       0.520830452442       0.446080952883 
      0.623395979404       0.695478975773       0.060720924288 
      0.384965360165       0.589160561562       0.228445023298 
      0.405189305544       0.233314841986       0.437832921743 
      0.057596325874      -0.213712140918       0.208910256624 
     -0.100154578686      -0.052095502615       0.749285280704 
     -0.042702846229       0.016686722636       0.641027271748 
     -0.120797194541       0.126163303852       0.639554560184 
      0.359993487597       0.202988371253       0.167705774307 
     -0.050862494856       0.095453068614       0.679576575756 
      0.416861623526      -0.447609692812       0.733838737011 
      0.094471253455       0.232986807823       0.490817397833 
      0.313696265221      -0.015628399327       0.858523488045 
     -0.228033542633       0.582772970200       0.708539664745 
      0.059456072748       0.659065902233       0.603937149048 
      0.265350848436       0.310716241598       0.879557013512 
      0.500779628754       0.219269111753       0.753908813000 
     -0.127898260951      -0.469704240561       0.648032784462 
      0.134880527854       0.585325956345       0.226725086570 
      0.773277163506       0.441593319178       0.486932635307 
      0.655296564102       0.741260230541       0.311307132244 
      0.898302435875       0.423318147659       0.452468872070 
      0.393122673035       0.314322382212       0.093144036829 
     -0.067697733641       0.685526192188       0.319391846657 
     -0.070681080222       1.031889200211       0.557272195816 
      0.338381916285       0.431719571352       1.137523651123 
      0.395131319761       0.413386881351       0.537651062012 
      0.182618141174      -0.253845512867       1.213553190231 
      0.125439196825      -0.238908961415       0.876072645187 
      0.235496506095       0.011373787187       0.831849455833 
      0.242513924837       0.181958869100       0.318824559450 
     -0.002722528530      -0.117752343416       0.663458108902 
     -0.081570334733      -0.607466876507       1.120285272598 
      0.164419457316       0.005406272598       0.695235192776 
      0.081785045564      -0.087964609265       1.064011812210 
     -0.044670503587       0.025966271758       0.378670841455 
      0.407642841339       0.661402642727       0.932769417763 
      0.597353816032      -0.196998059750       0.663853287697 
      0.047844607383       0.580320596695       0.131609231234 
      0.523417592049       0.028607556596       0.096580699086 
      0.578539013863       0.481068998575       0.458061218262 
      0.400197714567      -0.240353584290       0.679744899273 
      0.339335471392       0.286531150341       0.158190190792 
      0.646121799946      -0.588590145111       0.808121323586 
      0.779790341854       0.365869641304       0.582547724247 
      0.951776921749       0.363087236881       0.419753432274 
      0.722651362419      -0.237101450562       0.639183878899 
      0.081267826259       0.326449245214       0.838177502155 
      0.169063463807      -0.112366124988       0.784668982029 
      0.345545172691      -0.235458701849       0.747336030006 
      0.270353794098       0.454890877008       0.666518509388 
      0.091257482767       0.239160135388       0.708675622940 
      0.206733718514       0.085524730384       0.603373765945 
      0.155836343765       0.157711833715       0.233090117574 
      0.269522458315       0.440975964069       0.430504977703 
      0.302442669868       0.229522377253      -0.033032346517 
      0.283122807741      -0.276641666889       0.412855654955 
     -0.071409270167       0.033320803195       0.466521263123 
      0.605452716351       0.528456807137       0.137456491590 
      0.589240252972       0.394601166248       0.458918571472 
      0.512237370014       0.419687122107       0.554971635342 
      0.216312542558      -0.177409186959       0.746305465698 
      0.330129981041       0.538129746914       0.516022384167 
      0.235344767570       0.286237448454       0.262400358915 
      0.638032853603       0.145562380552       0.474365770817 
      0.427719056606       1.010579824448       0.759055495262 
      0.649790465832       0.513076424599       0.501932382584 
     -0.304196238518       0.260232746601       0.875410914421 
     -0.038663733751       0.734179794788       0.145191729069 
     -0.169145211577      -0.109794482589       0.758260428905 
      0.341602295637       0.581193387508       0.850448548794 
     -0.043657094240       0.699765861034       0.061884183437 
      0.597606539726       0.269371032715       0.697761952877 
      0.214405864477       0.506450533867       0.453071981668 
      0.198038130999      -0.024091685191       1.107707738876 
      0.299649924040       0.284900009632       0.324197888374 
      0.383849442005       0.017004504800       0.649607360363 
      0.050732001662       0.005385734607       0.962256371975 
     -0.210337057710      -0.627899527550       0.853373467922 
     -0.171599954367       0.554466068745       0.219844862819 
      0.432501494884      -0.314142465591       0.503418505192 
      0.100462332368      -0.204667747021       0.704223990440 
      0.021670805290       0.466007858515       1.127429366112 
      0.192469164729      -0.186170563102       0.904524981976 
     -0.034359741956       0.119895793498       1.291442632675 
      0.562935471535      -0.077386341989       0.543383955956 
     -0.025697762147      -0.095765590668       0.997833251953 
     -0.061818365008      -0.176107272506       1.218698859215 
      0.329278558493       0.123015321791       0.581875920296 
      0.165746703744       0.273298352957       0.743166267872 
     -0.126232475042       0.146153137088       1.125759601593 
     -0.292552769184      -0.163762047887       1.077668905258 
      0.302056044340       0.382238864899       0.703671932220 
      0.076430246234      -0.617917895317       0.944644927979 
      0.495404869318       0.156856358051       1.346829771996 
      0.965023458004       0.228906020522       0.903974115849 
     -0.035004965961      -0.129333078861       0.831382513046 
     -0.421255886555      -0.421896189451       0.389948397875 
     -0.627440094948      -0.163115084171       1.004034876823 
     -0.045881047845       0.277349412441       1.154179692268 
      0.586751282215      -0.003766129026       0.708283185959 
     -0.322949320078       0.566244542599       0.612148523331 
     -0.119069598615       0.269526988268       0.684652328491 
      0.039032682776       0.069503493607       1.194444298744 
      0.515729308128       0.825654268265       0.639334261417 
      0.253361344337       0.638539731503       0.330493569374 
      0.289721399546      -0.047410890460       0.936638295650 
      0.194141611457      -0.112889781594       1.097902059555 
      0.440568000078       0.621973991394       0.168190881610 
     -0.155665665865       0.658846616745       1.028889060020 
      0.656779229641       0.527133703232       1.024507522583 
     -0.298043161631      -0.005229874514       0.987256944180 
      0.310311019421       0.462542325258       1.062154531479 
      0.035742629319       0.311435341835       1.334008574486 
      0.577757239342       0.369353085756       0.586486935616 
      0.436692357063       0.045372497290       0.839618623257 
      0.408613711596       0.096160784364       0.734254479408 
      0.030541626737       0.611418724060       1.005609035492 
      0.016898468137      -0.254024267197       1.017959117889 
      0.158973917365      -0.050765730441       0.917476236820 
      0.126121163368       0.049494393170       0.759575963020 
      0.329123765230       0.453884512186       0.496394157410 
      0.135365635157       0.349912881851       0.772404730320 
      0.459115535021       0.477009564638       0.746464490891 
      0.590787827969       0.367065340281       1.187487125397 
      0.363050460815       0.049150645733       0.886840462685 
      0.677562236786       0.257591068745       1.061931729317 
     -0.098361134529       0.922412395477       0.273600965738 
      0.295464187860       0.262897372246      -0.470448046923 
      0.346808105707       0.698247611523       0.092479847372 
      0.307174295187       0.625784277916       0.124754734337 
      0.152785450220       0.037873215973      -0.088493354619 
      0.155206218362       1.188862562180       0.317690908909 
      0.442078590393       0.684240400791       0.700484275818 
      0.274606347084       0.928590297699       0.578665912151 
      0.314400196075      -0.124950811267      -0.089726559818 
      0.892563045025       0.837440371513      -0.208359882236 
     -0.011783695780       0.391847163439      -0.042728319764 
      0.185339778662       1.039377212524       0.209806114435 
     -0.405366331339       1.636601090431       0.230962932110 
      0.210369989276       0.401316702366       0.060641679913 
      0.162665203214       0.698685467243      -0.173730656505 
      0.101687408984       1.122902631760       0.001944119111 
      0.033799409866       0.898416101933       0.366227805614 
      0.488849520683       1.188926219940      -0.164679303765 
      0.053077999502       0.698682963848       0.492198526859 
      0.121802724898       0.610785186291       0.697853624821 
      0.202806457877       0.295638620853      -0.015782115981 
      0.467281609774       0.886187195778       0.463498353958 
      0.334076553583       0.584326088428      -0.273025333881 
      0.018306057900       0.617853283882       0.496887236834 
     -0.251381218433       1.100945115089       0.304760426283 
      0.577523827553       1.048872590065       0.363671660423 
     -0.094309434295       0.317188322544      -0.428603231907 
      0.701476752758       1.038567423820       0.343691289425 
      0.400230139494       1.023754239082       0.513750135899 
      0.137787207961       0.434793710709       0.650733530521 
     -0.024801082909       1.125663638115      -0.024273715913 
     -0.357794910669       0.764819502831       0.468488246202 
     -0.001949021709       0.920009732246       0.083368465304 
     -0.672070145607       1.143538594246      -0.021907094866 
     -0.329496145248       1.206122875214       0.168708622456 
     -0.216438636184       1.209395766258       0.349404424429 
      0.128748640418       1.422185778618       0.143534079194 
      0.259235143661       1.369085192680       0.252246707678 
     -0.206395477057       0.842247664928       0.102477356791 
     -0.448575794697       1.223221898079       0.165258735418 
      0.299451619387       0.898154437542      -0.341638714075 
      0.466308474541       1.292072415352       0.047053426504 
      0.181445866823       0.794538974762      -0.327408343554 
      0.370790302753       0.808834195137       0.507001638412 
      0.887423396111       0.773603916168       0.169389083982 
      0.115259751678       0.717037796974      -0.048550918698 
      0.524913370609       0.407215863466      -0.156318157911 
      0.334380626678       0.762976944447       0.621430277824 
     -0.000008421124       1.082879662514       0.472517579794 
      0.350150614977       0.371193796396       0.776327192783 
      0.073518343270       0.725848793983       0.080990754068 
      0.051978647709       1.153137922287       0.164041325450 
     -0.449183881283       0.984876871109       0.209137618542 
      0.339306205511       1.039657354355       0.343230694532 
      0.581280350685       0.563198089600      -0.066815003753 
     -0.042060259730       0.939550936222       0.386686116457 
      0.162623867393       0.471378117800      -0.216541171074 
      0.665938496590       0.754643738270      -0.135591089725 
      0.227462694049       0.088771201670      -0.078853614628 
      0.551783800125       0.777202427387       0.392440825701 
     -0.017262112349       0.743427872658       0.513119876385 
      0.156078100204       0.036417853087      -0.491883397102 
      0.038501627743       0.608951151371       0.409577876329 
      0.816904485226       0.542452633381       0.085233718157 
      0.426230520010       0.287431210279       0.672074258327 
     -0.522685348988       0.668907701969       0.232769101858 
      0.147733613849       0.869926869869       0.383974879980 
      0.089765347540       0.715831160545       0.415218979120 
      0.104532122612       0.217496410012       0.197070732713 
      0.475360959768       0.482915222645       0.657966077328 
      0.424247115850       0.873558640480       0.198385968804 
      0.294730693102       0.566377580166       0.301153481007 
      0.382576435804       0.386483311653       0.272460103035 
      0.287059217691       0.735326886177       0.041596759111 
     -0.099364168942       0.612527430058       0.678280651569 
      0.231450676918       0.810021996498       0.252392262220 
     -0.161076053977       0.951034367085       0.630415141582 
      0.304160177708       0.314755648375       0.647976338863 
      0.796752989292       0.696314811707      -0.036332629621 
      0.363721311092       0.365548670292       0.604163527489 
     -0.189220979810       0.839547097683       0.256540060043 
     -0.218058019876       1.226569771767       0.435075312853 
     -0.026454320177       0.854221999645       0.143067851663 
      0.000664742314       0.589132845402      -0.104837544262 
     -0.124487057328       0.928443431854       0.359062761068 
     -0.154566913843       1.129530549049       0.206751599908 
      0.014542785473       0.836957335472       0.307319283485 
     -0.062489833683       1.191812634468       0.165355786681 
     -0.140780597925       0.588720142841      -0.111636295915 
      0.294768840075       1.320442318916       0.463228613138 
      0.451335102320       0.840482413769       0.535693705082 
      0.237026110291       1.381305813789       0.485522031784 
     -0.062857039273       0.817406177521       0.347233831882 
      0.479067564011       0.949527323246       0.717091083527 
      0.383957505226       1.072601079941       0.968162953854 
      0.390986591578       1.315597653389       0.222325071692 
      0.751458227634       1.009440183640       0.410133838654 
      0.148090317845       0.965579867363       0.179209947586 
      0.453140914440       0.619627237320       0.557028591633 
      0.466719269753       1.115125417709       0.796083271503 
      0.320869475603       0.125190228224       0.494109570980 
      0.070936903358       0.833022892475       0.410100936890 
      0.425713539124       0.341163545847       0.332136273384 
      0.208104714751       0.694265961647       0.452582091093 
     -0.766713023186      -0.051122844219       0.770495295525 
      0.080934040248       1.320423364639       0.482134342194 
     -0.693589031696       0.672046720982       0.200260087848 
      0.403599798679       0.710605144501       0.424611955881 
      0.417681664228       0.483793139458       0.587578773499 
      0.418573737144       0.631450712681       0.635488688946 
      0.415089160204       1.142399311066       0.594164073467 
      0.222163930535       0.742278456688       0.781366288662 
      0.494011938572       0.508003950119       0.202422350645 
      0.600471496582       0.441663295031       0.534846305847 
      0.322305530310       0.689656078815       0.542013049126 
     -0.544516861439       1.074883460999       0.556989252567 
      0.163640663028       0.882525444031       0.658834636211 
      0.220049560070       1.554625272751      -0.096227005124 
      0.088563889265       1.232734680176       0.404334872961 
      0.058935735375       0.526428401470       0.381206899881 
      0.273996621370       1.200787663460       0.749750375748 
      0.046573638916       1.061128020287       0.541861116886 
     -0.527602016926       0.573105096817       0.671603083611 
     -0.343060344458       1.065223932266       0.237828716636 
      0.285910785198       1.190334200859       0.394412428141 
      0.176712036133       0.637948751450       0.285652905703 
      0.787948191166       0.700860559940       0.533898353577 
      0.213944941759       0.581767380238       0.766906082630 
      0.037333253771      -0.077411614358       0.728844165802 
      0.795952200890       0.928479969501       0.828472375870 
      0.254943013191       0.640069127083       0.506070077419 
      0.059103764594       0.568429112434       0.270134747028 
     -0.203564733267       0.712520062923       0.343015819788 
      0.453412950039       0.790223062038       0.183230653405 
      0.122097775340       0.988980233669       0.066361114383 
      0.662592470646       0.423377990723       0.192764133215 
      0.645639955997       0.933961689472       1.406581878662 
      0.627041041851       0.513347923756       0.354805409908 
      0.565432310104       0.477496445179       0.668642282486 
      0.868511438370       0.279795020819       0.500939905643 
      0.174851983786       1.243570923805       0.824580669403 
      0.678779363632       0.724860489368       0.396438628435 
     -0.157369494438       0.616780161858       0.436657756567 
      0.317542135715       0.976074635983       0.692460775375 
      0.750231623650       1.342885971069       0.277549624443 
      0.515662312508       0.900228917599       0.784763038158 
     -0.024897553027       1.106007218361       0.555341660976 
      0.674703001976       0.999975442886       0.458532363176 
      0.145069643855       1.631841182709       0.069868661463 
      0.305546700954       1.190182805061       0.049398247153 
      0.075750917196       0.619325220585       0.808565199375 
     -0.141048297286       0.773889362812       0.349549144506 
     -0.001800774480       0.300819486380       0.746986389160 
      0.317739218473       0.556649506092       0.179602324963 
      0.600301146507       0.440432012081       0.874649286270 
      0.408957064152       0.430849671364       0.692329704762 
      0.743731558323       0.306798428297       0.452890664339 
      0.662952303886       0.704376518726       0.663892269135 
      0.741999566555       0.509797692299       1.114517688751 
      0.570484697819       0.418755948544       1.070750236511 
      0.152053505182       0.223999366164       0.556347370148 
      0.028960542753       0.788659155369       1.127947092056 
      0.254379719496       1.015070915222       0.572390556335 
     -0.555431544781       1.161474704742       0.464836984873 
      0.473095357418       0.617819309235       0.749641716480 
     -0.326811105013       0.810095250607       0.363511562347 
      0.152798295021       0.363859951496       0.506246626377 
      0.488144844770       0.716520309448       0.399254620075 
      0.537242174149       0.494545996189       0.841265738010 
      0.324790626764       0.764253675938       0.969820141792 
      0.176095634699       0.877584457397       0.965884506702 
      0.689431071281       0.967143297195       0.655000150204 
      0.383542448282       0.467532455921       0.302924185991 
     -0.104153744876       0.785399913788       0.605091154575 
      0.693599343300       0.648873448372       0.444542169571 
     -0.090132437646       0.541870296001       0.728524506092 
      0.474703401327       0.822925567627       0.104532301426 
      0.536446809769       0.577390730381       0.315080106258 
      0.550891160965       0.946861624718       0.850291371346 
      1.160315394402       0.363853961229       0.858004629612 
      0.478815138340       0.771420538425       0.771300792694 
     -0.152085110545       0.785355031490       0.844600379467 
      0.244072452188       1.314713835716       0.718063056469 
      0.016461776569       0.840685486794       0.896325528622 
      0.422370791435       0.587854623795       0.886533141136 
      0.150655716658       0.761576354504       0.458595395088 
     -0.024413309991       0.214426845312       0.729530930519 
     -0.071274735034       0.354364484549       0.900873005390 
      0.064777128398       0.900174379349       0.505726873875 
      0.566460132599       1.406461119652       0.767246782780 
      0.222444146872       1.141078472137       0.788447916508 
      0.523667633533       0.707191288471       0.678318202496 
      0.193996846676       0.616794526577       0.844350695610 
      0.147609621286       1.461517333984       0.253045141697 
      0.178018420935       1.211460709572       0.986978948116 
     -0.180869519711       0.965956807137       0.714102685452 
      0.201162979007       0.481415838003       0.536910891533 
      0.839511215687       1.329702973366       0.281206518412 
      0.686102330685       0.507618546486       0.420552581549 
      0.457141399384       0.493431419134       0.335515797138 
      0.461634665728       0.469295322895       1.128243446350 
      0.518147468567       1.131164431572       0.430118799210 
      0.337866127491       0.624911308289       0.973247408867 
      0.027092715725       0.505262851715       0.910791635513 
      0.148379117250       0.348172038794       1.093223929405 
      0.263597220182       0.088022083044       0.999942302704 
      0.307323068380       1.022888302803       1.221298456192 
      0.445344477892       0.926952719688       1.266001105309 
      0.473408818245       0.606755495071       0.955982208252 
      0.860793828964       0.274004518986       0.955935299397 
      0.154129415751       0.421852827072       0.923993289471 
      0.766586303711       0.518687725067       0.927902817726 
      0.222499147058       0.505005061626       0.723935127258 
      0.038309503347       0.774626195431       0.761790513992 
      0.689141154289       0.434782713652       0.611231505871 