generated by phonopy
   1.0
    17.2129880470433392   -0.2360724031235462   -0.2702087934846332
    -0.2401589992694380   16.2279305854073890    0.1088482485071295
    -0.2817549887708066    0.1133445606461867   16.0639597663603304
Si
 216
Direct
  0.9052062763869978  0.3298262145793324  0.3118986618010332
  0.8877989598770565  0.2915710515390027  0.0316759545033397
  0.6599489353868154  0.4148616180217327  0.5467996916209307
  0.6843186849044823  0.3318159515278861  0.7766776947511489
  0.7588711208156236  0.4739839119058185  0.0194356455016092
  0.6125697907472107  0.3186047828580952  0.6477174776928210
  0.8627838923703878  0.3392268223106192  0.4535615594513709
  0.0396793498197599  0.4220357850054254  0.5785713780698686
  0.1783262948310379  0.5648747200470393  0.4437175469308346
  0.5659758865428423  0.7156595723158615  0.4084295470887346
  0.0160550252322563  0.2017597107066676  0.5431911483858979
  0.9895212343677603  0.7405691512098665  0.4614784314651599
  0.7896450495942948  0.2448437926676335  0.7896000737667719
  0.7669647676657311  0.9813187769783366  0.3863870287456481
  0.7779656603935916  0.7750388306118798  0.3982287475400404
  0.5198721315111950  0.6313546373346773  0.7778742719632934
  0.5871430459826406  0.5380462091819260  0.5712980567617018
  0.0053321662033442  0.8713192650073777  0.6166263199726417
  0.4957803821787845  0.3954278800404747  0.6893745490645478
  0.4576987297963980  0.3472740433125115  0.0393174402395159
  0.3612550711641739  0.3305670957249727  0.2654433628204629
  0.9175471402267594  0.4752241163365103  0.8754634015525334
  0.7952811631535858  0.5449815175275977  0.2562416848657771
  0.6520565338409343  0.7707111565952844  0.9131005309264876
  0.4016395984243428  0.7915786153908864  0.6472165185248744
  0.7800437036369854  0.5779239095657283  0.6711718881086731
  0.6081974432529711  0.9972890842325994  0.6167149087298144
  0.7754993818165364  0.9341811230338052  0.5302472259001079
  0.1873980274716189  0.8168006948691346  0.0521164980094738
  0.4689232733742657  0.2358765196557773  0.3073700113309585
  0.3386457199147840  0.6418295333453177  0.8884757567733153
  0.7825356427492728  0.5093751201410642  0.8774344457705001
  0.3845996624468427  0.6921283665768070  0.5321856339470824
  0.7009611681883129  0.8693154333290802  0.3246737157828108
  0.3840006628298220  0.4790417012772359  0.2705832640595318
  0.0023966651024125  0.8792293147885143  0.0626414967783395
  0.6426679467005750  0.8740198625257490  0.5348252656276010
  0.3723785963767120  0.8617114775975885  0.7727873286828455
  0.0025711874064711  0.0625806675012006  0.8153424257219474
  0.9153041679009806  0.1449476669313110  0.3796630245960211
  0.4234996105263250  0.8807842244739167  0.1989669669507247
  0.2431782899181955  0.4447624337502946  0.0625219038167406
  0.1408122851777569  0.6767060023385520  0.0387011270223539
  0.7676504093923858  0.1071931679467493  0.8430498115617178
  0.7066855751970548  0.6081018486855815  0.5474053687065245
  0.3711675932877960  0.6808009665396838  0.2888250823192398
  0.8561234337311250  0.8991851046364138  0.7817312700133098
  0.2959798487865447  0.7751101569354004  0.8587164838131552
  0.8934581725334938  0.2478310499333544  0.8915254537343664
  0.1263794598415021  0.8928357052375837  0.5479824126987003
  0.7695022857972662  0.4391908204869720  0.4587104155081406
  0.5798730543013025  0.2979536946158127  0.2499323538507890
  0.8320059956544710  0.6488917638687740  0.8828286347539595
  0.7371200967885949  0.0441154494613113  0.6109976226583174
  0.6154140767680027  0.2930211199044949  0.9030232978245634
  0.0467675990535624  0.8181550052088135  0.8446678656985533
  0.3675612058465240  0.0102938101768500  0.2285039251287433
  0.2328283782356807  0.8536395346781873  0.6333613473117229
  0.1477785022267395  0.7519139519574685  0.3135697245984445
  0.3792566133644657  0.1145873311012318  0.0011192294278145
  0.3756106911364718  0.6037318928973108  0.0249325376134390
  0.2151092210590504  0.1213941345592693  0.5805180158884462
  0.7744650363612916  0.5896258649089112  0.1178282679392056
  0.9120912157710021  0.4669085007450563  0.2569030040178643
  0.0242202253250372  0.3023612190186085  0.0908224552427530
  0.5689368046326058  0.7221743631105758  0.1399364345347809
  0.2906544823377886  0.5779459596101510  0.2249247522544624
  0.0900224515600060  0.6513155236117112  0.6689203668354587
  0.5784520365417744  0.3506577718989635  0.1137150339179536
  0.4840108763950967  0.2399243080789423  0.7015995065898569
  0.6637539578152201  0.7402067907666391  0.7745376295527965
  0.6808827864729131  0.7391029672027604  0.4948546121915638
  0.3992341087876544  0.5708025169298131  0.3863479401774261
  0.4730497753560597  0.0916573735550666  0.2834504331208502
  0.2842328498424587  0.7929319247544908  0.3173746091940371
  0.4984369864159143  0.9326513339891269  0.9677175701105691
  0.5816368305973990  0.9685738272977453  0.7591657559241982
  0.3229381052921745  0.0745651575067480  0.6613296260985965
  0.2755957963103016  0.9558819360072373  0.7316057511897575
  0.3089038541401786  0.5653020561576215  0.4921514381958459
  0.2499362861924077  0.5894192919462262  0.0847915372675265
  0.9743842629223955  0.6122321548620617  0.8993741414697760
  0.9913624784348430  0.7348996356145486  0.0892816753645705
  0.1934209888168986  0.2168899410802286  0.9676301305038733
  0.3228949877423002  0.1178340375312888  0.1343087496521514
  0.9807889652365669  0.7177546657566330  0.6079295994546421
  0.6450026240383246  0.8585221836373904  0.6871813462057799
  0.8235113721429180  0.5725419976815919  0.4799237514108400
  0.2976223562673633  0.2091096754579960  0.5023557552958602
  0.8944854545148803  0.0714573903400959  0.0535004408199317
  0.7903230127057392  0.6991510449500500  0.7486051525433267
  0.5844882919178034  0.8975109693082853  0.3945290324114989
  0.8453070783956415  0.8549859649807996  0.1619762887650789
  0.9408015039293112  0.3174335576995676  0.5769959555351007
  0.0201308681166164  0.7547893900787144  0.2377735042493781
  0.1012999123297847  0.5101346479260017  0.2269321249841695
  0.3411941382759943  0.8909665738636651  0.5479496274485892
  0.0177980084802769  0.4242966142451686  0.7926258881537910
  0.6315554046276010  0.8502368012747403  0.0999279542669490
  0.2315919495011257  0.3336969381376906  0.4789968523557194
  0.1513472495584071  0.3797316047208850  0.2617767771907468
  0.1066798998919045  0.0187188017650633  0.9074130147650927
  0.1454615388922299  0.7386085947692803  0.7882303338467066
  0.0469825219822215  0.2097646754903467  0.4024867405874636
  0.6448683541365551  0.6187906431716244  0.0821171967252065
  0.4156664338718761  0.2593572049375876  0.5656932349335966
  0.9193261234355781  0.9426632339623261  0.5204086622135707
  0.7993305191763515  0.2125717316021436  0.4310064728042396
  0.4765177495950979  0.3178759800730156  0.8974200761062752
  0.0932938561221783  0.4352204835601229  0.9194509066536215
  0.4967982894056822  0.6150624477422646  0.4861731468276950
  0.9934304061353911  0.4435444024821403  0.1410359904956296
  0.4201360494613025  0.8415617621298964  0.0527024465302425
  0.4100042711595215  0.4179685620292137  0.8114265056474405
  0.5816208480138578  0.5149865814707878  0.7194990810035009
  0.4497592708003129  0.4016753930253301  0.5448686216360753
  0.8955083874728594  0.1020930622180754  0.9083356850312079
  0.9044164758753046  0.5863388620364722  0.6069007821672084
  0.5213463591791212  0.0652406489387163  0.5276138423506833
  0.8048249400567351  0.1610770751303428  0.5670785022563073
  0.6324435270624504  0.9062834107364904  0.9583680719854767
  0.0093918219776307  0.2796387990998445  0.8226472849328882
  0.0212085606172036  0.0794542700623378  0.1195229753689873
  0.4341186893530401  0.1768650073541419  0.8797449875940514
  0.1603133197563369  0.6718642127318708  0.5417833193588781
  0.9102070881659183  0.1957480191347737  0.2435264758477704
  0.0138499575760331  0.5229404138320151  0.6772221250010769
  0.2500974584068522  0.4304904652467629  0.6794672256376290
  0.5716745442843476  0.4985945546295907  0.1246272153249954
  0.7713999339934994  0.7319695831152104  0.9788361175551090
  0.7116077860762717  0.4760233222202374  0.7556605423582722
  0.9042480306990034  0.9942723470026659  0.3738569980582662
  0.1236079534252540  0.2073848797135082  0.6341363345980211
  0.2694158028320494  0.5768940916607657  0.7106573438974644
  0.8732355589539934  0.2345781176475384  0.6775282478688801
  0.7244734266894601  0.9090055366034657  0.1892898420545307
  0.3431339871495501  0.3515583576527566  0.1137352198231977
  0.8406269815704380  0.8475163845745505  0.9215461762586022
  0.3509649319831891  0.1898040250049425  0.7575671446896936
  0.9647838721442366  0.6661438765198402  0.3386976558013568
  0.5853150553448316  0.5386508309173937  0.9718238520539386
  0.5691286239729159  0.1440788594689078  0.9087798890503305
  0.5450826767687950  0.2037439574330059  0.5722310808030482
  0.1779574481582194  0.9164617783896047  0.1600891066137071
  0.1511518830058683  0.1706681873923729  0.3174004508060052
  0.8118539344085347  0.1332011966265652  0.1483155368902975
  0.4704565745112906  0.7118326599173419  0.0342796122833782
  0.9284838749417883  0.0864358634469618  0.5540959848200711
  0.2231847475861682  0.1735016913472754  0.8298730474461160
  0.4632213012866557  0.4923060723370110  0.0272916749584529
  0.1193593829671125  0.1027262374170240  0.0215828532715579
  0.7674982075840879  0.3149609474332621  0.2552490241648510
  0.4995523571785574  0.8737136200371297  0.8259857338877656
  0.1453014476307748  0.0258931724824152  0.4940304053082943
  0.2270117009405147  0.0272509714202183  0.8444175845914056
  0.3342791983383652  0.0995160241771153  0.4196428452413080
  0.5622947804789287  0.0429001490973720  0.3882817687637620
  0.4716957535095344  0.8237476422493105  0.3404642641467364
  0.0774397351585384  0.2924167483480796  0.9538862352786948
  0.6847707666737413  0.0848190896903788  0.3323622357981517
  0.2213492590661195  0.5746903116298945  0.8509989675453135
  0.2230446211958737  0.0305132387959015  0.0809831391431485
  0.0428916341930850  0.1960964704054032  0.2025179598452053
  0.3956256114779048  0.5658889866986963  0.7828343960203678
  0.3178456017392104  0.4319103834984554  0.5473397319352008
  0.1181200539973583  0.7818934170175770  0.4535163159135224
  0.0770725082123144  0.4582476286388374  0.4428752198352235
  0.1533114414308190  0.3475635191408017  0.6028032147288030
  0.5486980608698619  0.6717502239950934  0.9218757452426254
  0.9494333062624031  0.8774528153698750  0.2615170546426930
  0.6984518446281882  0.0549975991295433  0.1878454900473600
  0.6799720957705914  0.2309656131963533  0.3444949480121153
  0.0978921427985858  0.8870867988959935  0.9628270219126414
  0.8523669438344058  0.7165725375955440  0.1050309072384934
  0.6514429479427658  0.0322931279099753  0.8723369522303407
  0.5553582341817582  0.3899510210526558  0.4518578478545358
  0.9517975763938209  0.7526763347537938  0.9301678779555534
  0.3582850817918464  0.3274520160585681  0.6917419296666824
  0.5867602201106039  0.4287147266499166  0.3153508739428897
  0.0466790597909217  0.9501629285733709  0.1831697159923119
  0.7816586966462044  0.8276349149944631  0.6766026380943512
  0.3872343455931691  0.0289107394501075  0.5394609322117351
  0.0473477659855172  0.3459351113961840  0.3494110678490396
  0.8933867272514157  0.4351442892439180  0.0248586548089066
  0.8287100298051473  0.6499747778078203  0.3517076493632656
  0.2579078976073547  0.9363223464404898  0.2821993420716927
  0.2564826776670691  0.2411037274410097  0.0980010858115427
  0.0915330627278366  0.1785421791898430  0.7719566102735057
  0.5262847103863129  0.7683882778107899  0.7188759702301964
  0.2997052260930578  0.8517421072182453  0.9826473121717182
  0.1132534111329876  0.6428475807758496  0.8949881335032549
  0.2370530825660646  0.2957083509801558  0.3371251850161576
  0.5066101915898359  0.0702916217392223  0.0246732675912564
  0.3677555975572610  0.8071827182210418  0.4362583110352812
  0.0167881746857677  0.5160836873170226  0.0086026819454284
  0.7761664122870134  0.2678478277712113  0.1138617454119291
  0.1592973986899687  0.3397926559756586  0.1251422220570723
  0.0140894034361825  0.5332118069169532  0.3348803323653101
  0.5134933835105667  0.5326998585621620  0.2505722072234883
  0.7230642492809491  0.4383819848470476  0.3163036356617444
  0.5587684767440341  0.0783134516836628  0.1640398747981580
  0.9910214716353053  0.9207072390909362  0.7568288201144224
  0.9049994041483694  0.8415617005738067  0.4052783318381893
  0.2125018823082525  0.0431675926705275  0.3694021452466033
  0.5582495012519691  0.2466893699350826  0.4283318218024987
  0.5341717276402689  0.9367124525422376  0.1413178162714131
  0.2767374041570279  0.3583613033801055  0.8114616282003180
  0.5116194521727099  0.6839828687970387  0.2696334099128547
  0.6855080798208527  0.3422906182064594  0.0279077124650530
  0.1799531932411976  0.6097260996185595  0.3003687707708405
  0.2993781604822480  0.9977258113022589  0.9656105799582089
  0.2750128434639288  0.7059771904136143  0.6272652852366029
  0.8042517528081143  0.0238059216187570  0.7366385020185050
  0.9178399727394728  0.0982160308456042  0.6987598509642524
  0.8768815445968584  0.9286942386593005  0.0386226130685676
  0.2273499168605516  0.4455256236351142  0.9154194506294622
