generated by phonopy
   1.0
    15.9923497217343744   -0.0000000000015236   -0.0000000000010772
     7.9961748610645493   13.8497811253384029    0.0000000000003944
     7.9961748610645493    4.6165937083140518   13.0576988688087816
  Na Cl
  64   64
Direct
  0.0000000000000000  0.0000000000000000  0.0000000000000000
  0.2500000000000000  0.0000000000000000  0.0000000000000000
  0.5000000000000000  0.0000000000000000  0.0000000000000000
  0.7500000000000000  0.0000000000000000  0.0000000000000000
  0.0000000000000000  0.2500000000000000  0.0000000000000000
  0.2500000000000000  0.2500000000000000  0.0000000000000000
  0.5000000000000000  0.2500000000000000  0.0000000000000000
  0.7500000000000000  0.2500000000000000  0.0000000000000000
  0.0000000000000000  0.5000000000000000  0.0000000000000000
  0.2500000000000000  0.5000000000000000  0.0000000000000000
  0.5000000000000000  0.5000000000000000  0.0000000000000000
  0.7500000000000000  0.5000000000000000  0.0000000000000000
  0.0000000000000000  0.7500000000000000  0.0000000000000000
  0.2500000000000000  0.7500000000000000  0.0000000000000000
  0.5000000000000000  0.7500000000000000  0.0000000000000000
  0.7500000000000000  0.7500000000000000  0.0000000000000000
  0.0000000000000000  0.0000000000000000  0.2500000000000000
  0.2500000000000000  0.0000000000000000  0.2500000000000000
  0.5000000000000000  0.0000000000000000  0.2500000000000000
  0.7500000000000000  0.0000000000000000  0.2500000000000000
  0.0000000000000000  0.2500000000000000  0.2500000000000000
  0.2500000000000000  0.2500000000000000  0.2500000000000000
  0.5000000000000000  0.2500000000000000  0.2500000000000000
  0.7500000000000000  0.2500000000000000  0.2500000000000000
  0.0000000000000000  0.5000000000000000  0.2500000000000000
  0.2500000000000000  0.5000000000000000  0.2500000000000000
  0.5000000000000000  0.5000000000000000  0.2500000000000000
  0.7500000000000000  0.5000000000000000  0.2500000000000000
  0.0000000000000000  0.7500000000000000  0.2500000000000000
  0.2500000000000000  0.7500000000000000  0.2500000000000000
  0.5000000000000000  0.7500000000000000  0.2500000000000000
  0.7500000000000000  0.7500000000000000  0.2500000000000000
  0.0000000000000000  0.0000000000000000  0.5000000000000000
  0.2500000000000000  0.0000000000000000  0.5000000000000000
  0.5000000000000000  0.0000000000000000  0.5000000000000000
  0.7500000000000000  0.0000000000000000  0.5000000000000000
  0.0000000000000000  0.2500000000000000  0.5000000000000000
  0.2500000000000000  0.2500000000000000  0.5000000000000000
  0.5000000000000000  0.2500000000000000  0.5000000000000000
  0.7500000000000000  0.2500000000000000  0.5000000000000000
  0.0000000000000000  0.5000000000000000  0.5000000000000000
  0.2500000000000000  0.5000000000000000  0.5000000000000000
  0.5000000000000000  0.5000000000000000  0.5000000000000000
  0.7500000000000000  0.5000000000000000  0.5000000000000000
  0.0000000000000000  0.7500000000000000  0.5000000000000000
  0.2500000000000000  0.7500000000000000  0.5000000000000000
  0.5000000000000000  0.7500000000000000  0.5000000000000000
  0.7500000000000000  0.7500000000000000  0.5000000000000000
  0.0000000000000000  0.0000000000000000  0.7500000000000000
  0.2500000000000000  0.0000000000000000  0.7500000000000000
  0.5000000000000000  0.0000000000000000  0.7500000000000000
  0.7500000000000000  0.0000000000000000  0.7500000000000000
  0.0000000000000000  0.2500000000000000  0.7500000000000000
  0.2500000000000000  0.2500000000000000  0.7500000000000000
  0.5000000000000000  0.2500000000000000  0.7500000000000000
  0.7500000000000000  0.2500000000000000  0.7500000000000000
  0.0000000000000000  0.5000000000000000  0.7500000000000000
  0.2500000000000000  0.5000000000000000  0.7500000000000000
  0.5000000000000000  0.5000000000000000  0.7500000000000000
  0.7500000000000000  0.5000000000000000  0.7500000000000000
  0.0000000000000000  0.7500000000000000  0.7500000000000000
  0.2500000000000000  0.7500000000000000  0.7500000000000000
  0.5000000000000000  0.7500000000000000  0.7500000000000000
  0.7500000000000000  0.7500000000000000  0.7500000000000000
  0.1250000000000000  0.1250000000000000  0.1250000000000000
  0.3750000000000000  0.1250000000000000  0.1250000000000000
  0.6250000000000000  0.1250000000000000  0.1250000000000000
  0.8750000000000000  0.1250000000000000  0.1250000000000000
  0.1250000000000000  0.3750000000000000  0.1250000000000000
  0.3750000000000000  0.3750000000000000  0.1250000000000000
  0.6250000000000000  0.3750000000000000  0.1250000000000000
  0.8750000000000000  0.3750000000000000  0.1250000000000000
  0.1250000000000000  0.6250000000000000  0.1250000000000000
  0.3750000000000000  0.6250000000000000  0.1250000000000000
  0.6250000000000000  0.6250000000000000  0.1250000000000000
  0.8750000000000000  0.6250000000000000  0.1250000000000000
  0.1250000000000000  0.8750000000000000  0.1250000000000000
  0.3750000000000000  0.8750000000000000  0.1250000000000000
  0.6250000000000000  0.8750000000000000  0.1250000000000000
  0.8750000000000000  0.8750000000000000  0.1250000000000000
  0.1250000000000000  0.1250000000000000  0.3750000000000000
  0.3750000000000000  0.1250000000000000  0.3750000000000000
  0.6250000000000000  0.1250000000000000  0.3750000000000000
  0.8750000000000000  0.1250000000000000  0.3750000000000000
  0.1250000000000000  0.3750000000000000  0.3750000000000000
  0.3750000000000000  0.3750000000000000  0.3750000000000000
  0.6250000000000000  0.3750000000000000  0.3750000000000000
  0.8750000000000000  0.3750000000000000  0.3750000000000000
  0.1250000000000000  0.6250000000000000  0.3750000000000000
  0.3750000000000000  0.6250000000000000  0.3750000000000000
  0.6250000000000000  0.6250000000000000  0.3750000000000000
  0.8750000000000000  0.6250000000000000  0.3750000000000000
  0.1250000000000000  0.8750000000000000  0.3750000000000000
  0.3750000000000000  0.8750000000000000  0.3750000000000000
  0.6250000000000000  0.8750000000000000  0.3750000000000000
  0.8750000000000000  0.8750000000000000  0.3750000000000000
  0.1250000000000000  0.1250000000000000  0.6250000000000000
  0.3750000000000000  0.1250000000000000  0.6250000000000000
  0.6250000000000000  0.1250000000000000  0.6250000000000000
  0.8750000000000000  0.1250000000000000  0.6250000000000000
  0.1250000000000000  0.3750000000000000  0.6250000000000000
  0.3750000000000000  0.3750000000000000  0.6250000000000000
  0.6250000000000000  0.3750000000000000  0.6250000000000000
  0.8750000000000000  0.3750000000000000  0.6250000000000000
  0.1250000000000000  0.6250000000000000  0.6250000000000000
  0.3750000000000000  0.6250000000000000  0.6250000000000000
  0.6250000000000000  0.6250000000000000  0.6250000000000000
  0.8750000000000000  0.6250000000000000  0.6250000000000000
  0.1250000000000000  0.8750000000000000  0.6250000000000000
  0.3750000000000000  0.8750000000000000  0.6250000000000000
  0.6250000000000000  0.8750000000000000  0.6250000000000000
  0.8750000000000000  0.8750000000000000  0.6250000000000000
  0.1250000000000000  0.1250000000000000  0.8750000000000000
  0.3750000000000000  0.1250000000000000  0.8750000000000000
  0.6250000000000000  0.1250000000000000  0.8750000000000000
  0.8750000000000000  0.1250000000000000  0.8750000000000000
  0.1250000000000000  0.3750000000000000  0.8750000000000000
  0.3750000000000000  0.3750000000000000  0.8750000000000000
  0.6250000000000000  0.3750000000000000  0.8750000000000000
  0.8750000000000000  0.3750000000000000  0.8750000000000000
  0.1250000000000000  0.6250000000000000  0.8750000000000000
  0.3750000000000000  0.6250000000000000  0.8750000000000000
  0.6250000000000000  0.6250000000000000  0.8750000000000000
  0.8750000000000000  0.6250000000000000  0.8750000000000000
  0.1250000000000000  0.8750000000000000  0.8750000000000000
  0.3750000000000000  0.8750000000000000  0.8750000000000000
  0.6250000000000000  0.8750000000000000  0.8750000000000000
  0.8750000000000000  0.8750000000000000  0.8750000000000000
