generated by phonopy
   1.0
     0.0000000000000000    2.8270747338350000    2.8270747338350000
     2.8270747338350000    0.0000000000000000    2.8270747338350000
     2.8270747338350000    2.8270747338350000    0.0000000000000000
Na Cl
   1    1
Direct
  0.0000000000000000  0.0000000000000000  0.0000000000000000
  0.4999999999999999  0.4999999999999999  0.4999999999999999
