3316004ea4e0d1b86eaa5c8e82db3393038efa77
1.0
   0.000000000000000    8.481224201505000    8.481224201505000
   8.481224201505000    0.000000000000000    8.481224201505000
   8.481224201505000    8.481224201505000    0.000000000000000
Na Cl
27 27
Direct
   0.000000000000000    0.000000000000000    0.000000000000000
   0.166666666666667    0.166666666666667    0.166666666666667
   0.333333333333333    0.000000000000000    0.000000000000000
   0.500000000000000    0.166666666666667    0.166666666666667
   0.666666666666667    0.000000000000000    0.000000000000000
   0.833333333333333    0.166666666666667    0.166666666666667
   0.000000000000000    0.333333333333333    0.000000000000000
   0.166666666666667    0.500000000000000    0.166666666666667
   0.333333333333333    0.333333333333333    0.000000000000000
   0.500000000000000    0.500000000000000    0.166666666666667
   0.666666666666667    0.333333333333333    0.000000000000000
   0.833333333333333    0.500000000000000    0.166666666666667
   0.000000000000000    0.666666666666667    0.000000000000000
   0.166666666666667    0.833333333333333    0.166666666666667
   0.333333333333333    0.666666666666667    0.000000000000000
   0.500000000000000    0.833333333333333    0.166666666666667
   0.666666666666667    0.666666666666667    0.000000000000000
   0.833333333333333    0.833333333333333    0.166666666666667
   0.000000000000000    0.000000000000000    0.333333333333333
   0.166666666666667    0.166666666666667    0.500000000000000
   0.333333333333333    0.000000000000000    0.333333333333333
   0.500000000000000    0.166666666666667    0.500000000000000
   0.666666666666667    0.000000000000000    0.333333333333333
   0.833333333333333    0.166666666666667    0.500000000000000
   0.000000000000000    0.333333333333333    0.333333333333333
   0.166666666666667    0.500000000000000    0.500000000000000
   0.333333333333333    0.333333333333333    0.333333333333333
   0.500000000000000    0.500000000000000    0.500000000000000
   0.666666666666667    0.333333333333333    0.333333333333333
   0.833333333333333    0.500000000000000    0.500000000000000
   0.000000000000000    0.666666666666667    0.333333333333333
   0.166666666666667    0.833333333333333    0.500000000000000
   0.333333333333333    0.666666666666667    0.333333333333333
   0.500000000000000    0.833333333333333    0.500000000000000
   0.666666666666667    0.666666666666667    0.333333333333333
   0.833333333333333    0.833333333333333    0.500000000000000
   0.000000000000000    0.000000000000000    0.666666666666667
   0.166666666666667    0.166666666666667    0.833333333333333
   0.333333333333333    0.000000000000000    0.666666666666667
   0.500000000000000    0.166666666666667    0.833333333333333
   0.666666666666667    0.000000000000000    0.666666666666667
   0.833333333333333    0.166666666666667    0.833333333333333
   0.000000000000000    0.333333333333333    0.666666666666667
   0.166666666666667    0.500000000000000    0.833333333333333
   0.333333333333333    0.333333333333333    0.666666666666667
   0.500000000000000    0.500000000000000    0.833333333333333
   0.666666666666667    0.333333333333333    0.666666666666667
   0.833333333333333    0.500000000000000    0.833333333333333
   0.000000000000000    0.666666666666667    0.666666666666667
   0.166666666666667    0.833333333333333    0.833333333333333
   0.333333333333333    0.666666666666667    0.666666666666667
   0.500000000000000    0.833333333333333    0.833333333333333
   0.666666666666667    0.666666666666667    0.666666666666667
   0.833333333333333    0.833333333333333    0.833333333333333
