generated by phonopy
   1.0
    15.9923497217343744   -0.0000000000015236   -0.0000000000010772
     7.9961748610645493   13.8497811253384029    0.0000000000003944
     7.9961748610645493    4.6165937083140518   13.0576988688087816
Na Cl
  64   64
Direct
  0.0133503508855004  0.9960679786635904  0.0079598348637372
  0.2420644997277335  0.0026453404172118  0.0169146732641511
  0.4742571895552828  0.0106851998564233  0.0191235389148094
  0.7467556613816633  0.0217924537285410  0.9988191210026999
  0.0103588881213216  0.2467094982244233  0.0040922376101752
  0.2577650880991041  0.2476178110572859  0.0042145402447205
  0.5079554920231721  0.2489822176851478  0.0018347376552471
  0.7494956443369609  0.2413544064992910  0.0125964401482617
  0.9870973275221483  0.4946470401076876  0.9983339039462791
  0.2256340729811152  0.4910674856462965  0.0121573775445706
  0.4906548723904720  0.5059028240777269  0.0034019808598040
  0.7390853179597756  0.5147756351197688  0.9875784750803771
  0.9962391102373057  0.7442406960905168  0.9956271883252839
  0.2532522623348361  0.7646745362329685  0.9853924455465293
  0.4918760921242831  0.7336086344502663  0.0068592826148496
  0.7337481204104674  0.7544595654407201  0.9974857242532035
  0.9963464255229285  0.9797223333607321  0.2690212322898508
  0.2591782046684817  0.9944312021859294  0.2456630741000222
  0.5065922291351085  0.9958349659494763  0.2469571715968357
  0.7439246152130709  0.9953087815571108  0.2658730286335643
  0.0039178312128737  0.2516647866278818  0.2384839394937155
  0.2531519338590754  0.2457241692879917  0.2354722139021884
  0.5038379865054360  0.2393828306102299  0.2534061803955541
  0.7548385881561891  0.2533943503587034  0.2646747493078040
  0.9974391810449954  0.5092701365076741  0.2495170423694144
  0.2508580437418164  0.4828997845773562  0.2696565706955881
  0.4804358115584277  0.5166021582914224  0.2470624986351753
  0.7604870952292796  0.4947741520594775  0.2580258657163138
  0.0134329463026324  0.7471167205668160  0.2514147499876941
  0.2456841747940747  0.7693495673299372  0.2419791212323877
  0.4871170136526367  0.7613612174071080  0.2567730854318420
  0.7496158862995075  0.7478210544526221  0.2582129042514811
  0.9969215152018389  0.9902639226173743  0.4988141180061811
  0.2401512433991475  0.9978989659446689  0.5114454558115115
  0.4992926760537859  0.9792094548456629  0.5084110829681655
  0.7664238266727130  0.9891364037390383  0.4801837214163682
  0.9972278930099645  0.2514165445554188  0.4940063757913637
  0.2488369446341049  0.2418247644274815  0.5074872598506558
  0.4874227829600009  0.2526074558577461  0.5120331614394914
  0.7441642230890118  0.2453123885159913  0.4974430915476986
  0.0084430108166898  0.5008242311919266  0.5047300455255205
  0.2457815983310858  0.5004888150208422  0.4945060903042189
  0.4963485429873303  0.5182945483108647  0.4962171982773287
  0.7753994377150960  0.4796365176667101  0.4969596622182429
  0.0113991839076398  0.7519232918192116  0.4921240645569805
  0.2561854071627748  0.7411584645908210  0.5020001231900958
  0.4943918036140482  0.7547828061478002  0.5086775914408940
  0.7511007717116199  0.7616949498912514  0.4878568209944989
  0.9706482429211730  0.0008853039735963  0.7570375945603772
  0.2567953642263948  0.0105288175265514  0.7411070242988127
  0.5115312383951380  0.0061770926355572  0.7470911048342251
  0.7632624685174418  0.0101255289275909  0.7422234115362992
  0.9960893148399037  0.2672870718114293  0.7485929986122335
  0.2286524498159355  0.2465548100568458  0.7521315117427605
  0.5121099025945457  0.2355338333413985  0.7643096190744979
  0.7499336664643458  0.2515298676784005  0.7541035309948620
  0.0105049504164332  0.5080790731140412  0.7423623066164696
  0.2605392085849153  0.4934439009392694  0.7484702319461073
  0.5158703299594447  0.5065817850846175  0.7377487970667943
  0.7447729854116865  0.5182579856792351  0.7531699356831946
  0.0059239313753562  0.7249194675467370  0.7559033199253160
  0.2501486072704810  0.7501434297687917  0.7596094575823048
  0.4996568759259786  0.7603934841736354  0.7398366430524903
  0.7464850811663495  0.7423328167540850  0.7477601325319723
  0.1194627542088681  0.1376638754372034  0.1197374151120938
  0.3793646443405162  0.1301790527737761  0.1281015323211567
  0.6213656655321045  0.1231519082229945  0.1365428211348996
  0.8662812675768367  0.1189291126058800  0.1368883664680660
  0.1301094508923162  0.3917067834760926  0.1227565589324624
  0.3763505012818127  0.3781989730727965  0.1276120436207900
  0.6175762814162292  0.3849465548643125  0.1129746533487691
  0.8637899616994705  0.3740959419766336  0.1440053117128855
  0.1363881175297224  0.6369395871686662  0.1160221748472523
  0.3717375569306010  0.6290185097411377  0.1216070139067082
  0.6455949104596374  0.6209304038502529  0.1193030689978772
  0.8804201188703442  0.6351776589939502  0.1160213064106474
  0.1173716590005280  0.8729238773567782  0.1309390912969376
  0.3951666334425594  0.8778048867300819  0.1163532437644586
  0.6314787828264703  0.8597659413707248  0.1190571616444676
  0.8682299514228414  0.8597117625454035  0.1343418119255063
  0.1373127983372688  0.1210233107171267  0.3830640369856761
  0.3978452377540604  0.0968241730384440  0.3806863191861150
  0.6201120877992520  0.1254903568692108  0.3756498706681057
  0.8713643045795189  0.1232516358389848  0.3822824383357127
  0.1240600265155341  0.3813336732038162  0.3619426961798589
  0.3937156471199728  0.3623595257344084  0.3619069442082670
  0.6371270538699472  0.3753777821052618  0.3661302215985225
  0.8783259608705635  0.3712610670473742  0.3761584166163466
  0.1186052417426837  0.6102119996271275  0.3808991700308175
  0.3919199176630810  0.6192971950978386  0.3792895390461242
  0.6257686338017915  0.6159890371953178  0.3794127974174047
  0.8884655906515120  0.6073066159829408  0.3879379422870936
  0.1321971234883030  0.8604269475671104  0.3732824221171281
  0.3913654133920165  0.8641477568707092  0.3710563811640820
  0.6108554017720411  0.8848626071146248  0.3922273070182443
  0.8750228324440693  0.8725492410817481  0.3835698003135399
  0.1108686289459516  0.1292085866271343  0.6328058996255757
  0.3896623762473983  0.1266373228014914  0.6096447010888284
  0.6195214922072756  0.1201640353260333  0.6432114465385325
  0.8714541734092172  0.1300373423953766  0.6248429623441076
  0.1219567794545295  0.3766681992628453  0.6298531489818616
  0.3717762941189299  0.3606841534790001  0.6402163878545077
  0.6433952984713628  0.3695496393723415  0.6185305176086254
  0.8792504335008656  0.3737272301533320  0.6158059341327259
  0.1281393862855890  0.6161770179717625  0.6268390999515353
  0.3651491771192392  0.6197675317655794  0.6453933975015209
  0.6311718875426079  0.6361292483208729  0.6168586978330319
  0.8775414779555173  0.6249223027993563  0.6304776233712061
  0.1327761816331992  0.8658025140655670  0.6449447820951836
  0.3738338359519080  0.8859517577385233  0.6182102955901382
  0.6124055590194503  0.8940202518549789  0.6266449933865820
  0.8654897040442131  0.8752020961619404  0.6286510424297372
  0.1267303744635515  0.1252206999251022  0.8770076173072855
  0.3709853011631651  0.1330064804755950  0.8675411241039377
  0.6203551548787398  0.1294171497218033  0.8768750688896321
  0.8780593358938604  0.1173082016176886  0.8629001081656991
  0.1327435978209103  0.3792992923686607  0.8695567055511826
  0.3703053096318755  0.3792226402883130  0.8792838014874645
  0.6464189631641439  0.3656075082263304  0.8775075305277955
  0.8940623607238081  0.3542914851477094  0.8765836573410932
  0.1005013708804660  0.6283291842783250  0.8810820929068324
  0.3799803964525995  0.6280556515747551  0.8754551033253201
  0.6244427540960380  0.6339898160169272  0.8758350992233371
  0.8617556569012235  0.6162677842941169  0.8888824155945836
  0.1371265913092793  0.8835143229624411  0.8755119596758183
  0.3640077541469285  0.8628614875568483  0.9053556297808424
  0.6326134733939603  0.8708205485209521  0.8794389888833967
  0.8814876392679489  0.8744298269782514  0.8637733217421367
