generated by phonopy
   1.0
    15.9923497217343744   -0.0000000000015236   -0.0000000000010772
     7.9961748610645493   13.8497811253384029    0.0000000000003944
     7.9961748610645493    4.6165937083140518   13.0576988688087816
Na Cl
  64   64
Direct
  0.0056908308858785  0.0018769175250777  0.9861773159543700
  0.2522524913596365  0.0213729102638161  0.9995615842303748
  0.5008244236300963  0.0071678354548900  0.9861641821345514
  0.7456088553528937  0.0120778702375815  0.0078299602265877
  0.0128914768894513  0.2424782002817815  0.0030134148205480
  0.2714454833937492  0.2492780779268651  0.0027278318396252
  0.4905650788446050  0.2399457174419389  0.0112192583172555
  0.7511243264092745  0.2335604425328938  0.0243404224690520
  0.9852469977002407  0.5220883787964740  0.9990101854005596
  0.2334890693044956  0.5095810528370727  0.0063957679860274
  0.4914307542482605  0.5188136586520953  0.9919887031350810
  0.7500470870280779  0.4956469035554870  0.0126387470473936
  0.9889056894653916  0.7350621002523118  0.0165383184021425
  0.2573277958282631  0.7499049206314470  0.9978273305245462
  0.5102275591661168  0.7551833746887545  0.9892754047703307
  0.7349504663876817  0.7530142691405057  0.9898865547630965
  0.0022538398418332  0.0201296471407246  0.2146878384812979
  0.2358761052044367  0.0075632243445611  0.2500628601781220
  0.5011895045075818  0.0125357338173929  0.2491944530124308
  0.7557314010166533  0.9972220204889742  0.2541642371099931
  0.9967344117058970  0.2522682161731472  0.2358902639918175
  0.2493012805428437  0.2535992087379545  0.2494293489234889
  0.5178335271753464  0.2253818505704389  0.2542445178546618
  0.7542583194436404  0.2459915711342213  0.2416378906939684
  0.0050651763639916  0.4881977298274426  0.2416580119478595
  0.2494977352218548  0.5003146336683406  0.2547934379741154
  0.4913641215224213  0.4997671419342960  0.2412171188943482
  0.7410169748759060  0.5076004721004929  0.2514651606784639
  0.0083477395479881  0.7664761449067435  0.2377976771523146
  0.2481261784331466  0.7591026519099743  0.2528058131102320
  0.5011978192641905  0.7330606387696114  0.2657098013519733
  0.7353831751577689  0.7644645977902930  0.2578766869088585
  0.9990740893986287  0.0064688140066138  0.5108823768089268
  0.2553743401829846  0.0014570256750497  0.4891219573858486
  0.5145670949009709  0.0089981781654927  0.4872676078701276
  0.7672039079523610  0.0040192836648057  0.4875792933051437
  0.0018824664244090  0.2638828670186819  0.4874743357232397
  0.2561207969407494  0.2426632658920488  0.4943348582281966
  0.4954847105759446  0.2779316566416534  0.4819050255313314
  0.7600018950649821  0.2247781992781216  0.4999320305709702
  0.0007046302750912  0.5103388962516591  0.4961812371848314
  0.2527154971250590  0.4816523584010432  0.5147343153859206
  0.5034144547222260  0.4985675002662784  0.5006356547260675
  0.7492653214351277  0.5173136721949355  0.4836640535738089
  0.0258325237517799  0.7387757867411877  0.4864903011913491
  0.2620654744903260  0.7504426752428245  0.5004785952629742
  0.5093728504595619  0.7643111991098113  0.4877482310424102
  0.7453442536793068  0.7252490135429521  0.5254163914573142
  0.0155219028527453  0.9866179259520683  0.7571648005523256
  0.2269118155929655  0.0240159528950902  0.7533471683594474
  0.5077571356552589  0.0081347291826514  0.7421826469394941
  0.7546509605789218  0.0034115781083617  0.7376691850525474
  0.0178708927752631  0.2434362946759306  0.7511576948211411
  0.2675655028048076  0.2501385089199889  0.7147756863785615
  0.5052527729891538  0.2410308864756559  0.7349194545739987
  0.7458897691509130  0.2574593989509463  0.7387224708418759
  0.0051190221456376  0.5090089583524876  0.7345792065900012
  0.2532954753528321  0.5002853161850183  0.7444894576320633
  0.5040563617769416  0.4966654113046496  0.7477472215271970
  0.7510525581448075  0.4862050546673138  0.7630068614616746
  0.9955742015568939  0.7526484726119615  0.7487950363656232
  0.2653816179872286  0.7475096657885921  0.7437690489567863
  0.5011734822813473  0.7515490716698591  0.7382327559029334
  0.7622603769717107  0.7455689936656832  0.7496101331959125
  0.1189052727107958  0.1219791042928063  0.1155153576413257
  0.3829051798482891  0.1188477442437993  0.1355480344220773
  0.6224526417018040  0.1309100621579316  0.1253757932240288
  0.8698370635456424  0.1327181805141534  0.1321829709620941
  0.1258739435502854  0.3788125167376423  0.1262677017599258
  0.3843958578931156  0.3746064791856721  0.1252987847008445
  0.6121174056557008  0.3724483777024202  0.1425843622746615
  0.8674057543696198  0.3848793754809303  0.1273013066474985
  0.1323516949470995  0.6272651036865372  0.1156748909291092
  0.3727482024280226  0.6447154958123992  0.1038823309350179
  0.6151368164640910  0.6429070703126001  0.1187659198461797
  0.8776984046858074  0.6288054332123327  0.1121213259435159
  0.1423982876261607  0.8564450906779798  0.1256958038749179
  0.3863034818621923  0.8916871472255308  0.1334559364064341
  0.6243332703979857  0.8889953582792466  0.1103998152752964
  0.8767723335784452  0.8968493508664085  0.1064711495825281
  0.1181613380589970  0.1193895565507951  0.3856186482462741
  0.3854483352659240  0.1399991078537110  0.3639375464134686
  0.6451180380900239  0.1124253620098190  0.3526333228150668
  0.8575054831423037  0.1514947109524823  0.3728134399609365
  0.1292230044693590  0.3691605026196805  0.3755261051144420
  0.3689087064873097  0.3737912442128639  0.3871151185749239
  0.6456600151204533  0.3742206424540415  0.3746623699144402
  0.8732670965545982  0.3837996350819309  0.3760661290366497
  0.1288468343321696  0.6098287465664777  0.3870518961618802
  0.3675137737616994  0.6297626644474433  0.3637727728354247
  0.6098070398568834  0.6264266327433429  0.3813917972565068
  0.8713730210596839  0.6314776061726766  0.3691673532401488
  0.1337043540621364  0.8667997665268768  0.3774028913346076
  0.3830477249104481  0.8839460897426096  0.3555965677334387
  0.6157593127054438  0.8742893812339417  0.3793318995806290
  0.8713290634796652  0.8801365136174497  0.3805151413160525
  0.1449905122357935  0.1141608002253967  0.6241520961154314
  0.3835549242485550  0.1226668596612082  0.6222632478557408
  0.6172118258915225  0.1511199488058511  0.6296389986204883
  0.8818102766251635  0.1277971364399945  0.6252341205161385
  0.1145757882017835  0.3716387441072725  0.6329887374838177
  0.3703777920085765  0.3781895895800383  0.6262653925858528
  0.6173330973806425  0.3666101848798191  0.6338178485172374
  0.8786654683370670  0.3790454732413488  0.6143374529110149
  0.1132283622099679  0.6138123272177988  0.6375863372977223
  0.3666791759147174  0.6303166028048074  0.6242620429997126
  0.6047730885691840  0.6216018141840794  0.6492284340883031
  0.8725671101971414  0.6060369180794811  0.6368545932994587
  0.1363236219435208  0.8655599801911599  0.6276028976481671
  0.3673550198767521  0.8649115792125106  0.6338844328412377
  0.6350234653873224  0.8735970033741458  0.6125713895049818
  0.8743482268683929  0.8979742245184015  0.6150942617470996
  0.1302733446603965  0.1289957193847936  0.8704479249224363
  0.3887829453604434  0.1251401429173049  0.8664904892715514
  0.6286896559352257  0.1272058549253478  0.8776112368078081
  0.8760050671474302  0.1317567162861617  0.8699174154307603
  0.1294250427670100  0.3773404711677311  0.8699139890432377
  0.3486157474063408  0.3841800206536609  0.8887436152322015
  0.6325177070385182  0.3671949559093728  0.8681287310200059
  0.8859300143189753  0.3697135370548857  0.8902621137235055
  0.1170909984817619  0.6293146640000490  0.8789366958784138
  0.3811327957473754  0.6098092024136768  0.8781585581366169
  0.6220028077497780  0.6302518572541403  0.8679822938931595
  0.8813803151304375  0.6270791928896963  0.8643180973876916
  0.1338856183514374  0.8731508984360471  0.8706093913660776
  0.3646205122736391  0.8912611186793139  0.8804852196238432
  0.6326032191943396  0.8782547061065423  0.8713020845318877
  0.8700207548333845  0.8682994365600051  0.8787606272039165
