generated by phonopy
   1.0
    15.9923497217343744   -0.0000000000015236   -0.0000000000010772
     7.9961748610645493   13.8497811253384029    0.0000000000003944
     7.9961748610645493    4.6165937083140518   13.0576988688087816
Na Cl
  64   64
Direct
  0.9839700042648469  0.9995886778226474  0.0069861462533350
  0.2278454722809547  0.0251577903038267  0.9977587996358409
  0.5062862366643947  0.0030846338935210  0.9891177989325151
  0.7596947071106316  0.9955447358617765  0.9896961503228515
  0.9906616600271936  0.2606644895122815  0.9890569227818324
  0.2651548807369051  0.2500393517327893  0.9895968792318828
  0.5007165597302750  0.2320981266100641  0.0118076977228147
  0.7538325997389586  0.2527866297884959  0.9888155978294572
  0.0136501057185945  0.5006581239790749  0.9942605971984956
  0.2606199165853533  0.4828809219710837  0.0027187557641650
  0.5182155805183768  0.4931754882235471  0.9987181782996523
  0.7509287154169337  0.4791447957252697  0.0128837968053912
  0.0028732840832299  0.7585732814430201  0.9868643109321700
  0.2339446740234622  0.7602456457757918  0.0024217678483824
  0.5155455182578795  0.7320982462528842  0.0029273049376740
  0.7698603355341594  0.7420566991061582  0.9918368665236211
  0.9796237736434784  0.9998985114568215  0.2533897862296378
  0.2673440231340075  0.9925422376003847  0.2468784682457263
  0.4864173856901840  0.0105585330684224  0.2380116161104249
  0.7369364149353461  0.9958137896709368  0.2470892398637623
  0.0075532409616430  0.2739619517087945  0.2327807976292776
  0.2531207191055109  0.2419756760111675  0.2648424169137433
  0.4861875646838840  0.2570198506705905  0.2540847828636301
  0.7537314995145502  0.2493384557789862  0.2497631537619186
  0.9986702006229345  0.4980116558086764  0.2379184400521836
  0.2435434465559362  0.5139702805426924  0.2497950335554259
  0.5062480558854832  0.4960517809416779  0.2358598173576415
  0.7381741580457571  0.5113005782051391  0.2425632007666608
  0.0086985880011747  0.7476304155941184  0.2562206399276571
  0.2558617598198705  0.7573510758915113  0.2382138682626688
  0.4965767974797921  0.7347031712165202  0.2553421301432275
  0.7554711397063451  0.7580830040780814  0.2508990490661567
  0.0093184268946990  0.9978125582608410  0.5129670731428139
  0.2542919893129456  0.9919620727413556  0.5029760671965455
  0.5064131421595492  0.9934033429943244  0.5202011728820580
  0.7624279910908767  0.9961021126360791  0.5044869431881095
  0.0255821475764666  0.2419998682682842  0.4936421670594497
  0.2721090727938880  0.2513720345762279  0.4940333138731898
  0.5188192361465651  0.2591477316337243  0.4872956329241803
  0.7369448918249366  0.2470028105283907  0.5104645469666874
  0.9793733151124618  0.5123348434218443  0.5115897828998772
  0.2596180648540472  0.5099713884275628  0.4834060799727824
  0.5043453312722200  0.5052507545586105  0.4835382363957257
  0.7604772016713081  0.5094124007603763  0.4818025260472573
  0.0056826943564066  0.7609629614651183  0.4997302847808877
  0.2353183635480890  0.7459551126461995  0.5101834268483805
  0.5253990996702780  0.7531037166109472  0.4802010422189749
  0.7586217665556855  0.7216745542129472  0.4998977372034152
  0.0031793281753147  0.9935400992679695  0.7431570619098133
  0.2553420649373547  0.0137106601216983  0.7566139247387408
  0.4883218314346915  0.9929945296307980  0.7676236906987112
  0.7462946750308790  0.9924560986875149  0.7553536845724268
  0.0089576557182619  0.2551427075726281  0.7615982230537919
  0.2457400483685540  0.2561322501872729  0.7589094240730649
  0.5211881213072582  0.2453279751778160  0.7357696722686794
  0.7346572474026238  0.2587900838585061  0.7589936515825100
  0.9902429531217956  0.5040508773636069  0.7417148665865885
  0.2431059418269238  0.4983318198637784  0.7636272241859898
  0.4845108015888904  0.5022209998823842  0.7386666398399833
  0.7466443086792409  0.4843067576385059  0.7545560686306489
  0.9950658136648589  0.7571742705659311  0.7445169919794921
  0.2487128973081594  0.7342875164685875  0.7546274196559595
  0.4895172849647466  0.7514855793561253  0.7513665156663807
  0.7478207084505973  0.7600038387804470  0.7501184492948152
  0.1275052370906209  0.1187196467039027  0.1253065509890335
  0.3766447058272659  0.1189262515863687  0.1235717396036859
  0.6162480099075287  0.1177211204354067  0.1356234891241667
  0.8671788791458659  0.1338490201993384  0.1167661157580372
  0.1262986548535917  0.3680679322839895  0.1352681113996939
  0.3831144800739625  0.3705607904595103  0.1202140067871190
  0.6365124807026293  0.3617811379988788  0.1243724815891525
  0.8659325715646808  0.3855074924287957  0.1252136630961138
  0.1212037486893913  0.6349182475069640  0.1162567303305896
  0.3793404002825982  0.6235854936990857  0.1258385786756470
  0.6044612578791558  0.6242306481462597  0.1531604160448987
  0.8882489021731099  0.6356561244451845  0.0962428801370720
  0.1296635374342789  0.8767468062481870  0.1213218608646697
  0.3841244675016477  0.8767470612192395  0.1136770884675162
  0.6165326963359884  0.8946149231080027  0.1264232183857640
  0.8613525251964343  0.8868942173263028  0.1270786158511801
  0.1389791981089333  0.1061335043372119  0.3835828810685736
  0.3796114402353195  0.1255534090714471  0.3831345834803601
  0.6405362247408124  0.1287328421164458  0.3674002719031688
  0.8707515915368403  0.1283863386808713  0.3711237697334113
  0.1214010396099665  0.3796579924415338  0.3694431543269002
  0.3761025218368588  0.3787222703966767  0.3855981241564816
  0.6271993442164125  0.3683774768792792  0.3855168334691146
  0.8809648836918961  0.3820388329889650  0.3744896714957616
  0.1265164462079594  0.6102284479222123  0.3852272207026990
  0.3730581057769122  0.6282373561085582  0.3759110424210180
  0.6275725336039488  0.6375948403155550  0.3704324933403272
  0.8673163699876180  0.6205742907252541  0.3747723180112238
  0.1301319348842036  0.8690094919301228  0.3705692184701654
  0.3714725817380944  0.8866865209156789  0.3653077088574107
  0.6305999167204140  0.8822787406136569  0.3808853241158078
  0.8829106418358336  0.8765383400450031  0.3905952955321338
  0.1264002770131687  0.1213743164651320  0.6194125393689406
  0.3792204232865208  0.1351986756631246  0.6192441870560857
  0.6135600911491071  0.1258254342853866  0.6293440548401465
  0.8715234715006565  0.1354639777080564  0.6252743363845407
  0.1195398762471269  0.3671080134861754  0.6407536693828719
  0.3928266283494624  0.3763011942675653  0.6392031505726686
  0.6135851301493916  0.3608709222420795  0.6353482437911950
  0.8722457658715758  0.3781014971005069  0.6315405441280145
  0.1208012820050659  0.6336053216442884  0.6157941286443230
  0.3857538071091991  0.6140542220389366  0.6492097027894534
  0.6313849884368444  0.6291978188627116  0.6076934815210541
  0.8624002138252758  0.6120413116032534  0.6384175760578816
  0.1126044385643749  0.8825165838090444  0.6326859549504704
  0.3717145402818114  0.8867131788415081  0.6268390819779776
  0.6327111409855637  0.8627626835402353  0.6297161083162554
  0.8748605473209539  0.8703068743747432  0.6300274650919508
  0.1382735561577223  0.1417355033641966  0.8570630045344175
  0.3748677666505411  0.1274159695839121  0.8702575395969235
  0.6261342049519262  0.1256835901930360  0.8723974447052919
  0.8682443187891945  0.1333666742720687  0.8748709291980719
  0.1294725535168030  0.3685287930305814  0.8806292146293581
  0.3752735603044509  0.3687110455600665  0.8790830682433973
  0.6198115488072693  0.3730191566362754  0.8840265255027038
  0.8751649355522489  0.3658951800462329  0.8873331109979766
  0.1311743337667668  0.6076551411364656  0.8689517167794769
  0.3827717233237469  0.6333676118219377  0.8575506162819517
  0.6242282068778916  0.6174696911578764  0.8690667515354078
  0.8671208012769042  0.6265759231055061  0.8709758450807920
  0.1138008334855778  0.8733492511001414  0.8816201435893001
  0.3877809352338547  0.8750755091612119  0.8639610718019085
  0.6299206270970004  0.8754294836954941  0.8711093335439820
  0.8615023665198034  0.8745375298893591  0.8764071541629951
