generated by phonopy
   1.0
    15.9923497217343744   -0.0000000000015236   -0.0000000000010772
     7.9961748610645493   13.8497811253384029    0.0000000000003944
     7.9961748610645493    4.6165937083140518   13.0576988688087816
Na Cl
  64   64
Direct
  0.9862371124325610  0.0073424653354458  0.0065096027930901
  0.2599806702368210  0.9945649779656170  0.0019204971964169
  0.4818861103098642  0.9948132880730240  0.0116879379185747
  0.7551464177017233  0.0085604658656381  0.9951289225381443
  0.9969326212569876  0.2718738235380262  0.9833292204803352
  0.2528966379063223  0.2443910337054188  0.9983782220293295
  0.5155262017067067  0.2369119787819168  0.9964002886212480
  0.7391096772100456  0.2359257087236876  0.0167919269965835
  0.9854148908797796  0.5002601537559075  0.0154652286064590
  0.2527245289584399  0.4838325336716819  0.0050433029334966
  0.5046461900187744  0.4916672584946887  0.9918149336493484
  0.7604874608314087  0.4867509949894359  0.9936167193563440
  0.0025892458109702  0.7354304838445155  0.0126959349101570
  0.2471753125851748  0.7402796317380326  0.0081757959896052
  0.4906429159878098  0.7638906501922567  0.0016411160910260
  0.7540102865864837  0.7749473415395471  0.9986060235921818
  0.0001431836945704  0.9873736247881904  0.2615465162698877
  0.2332277517374750  0.0054220969008478  0.2421262116837473
  0.5135737306021094  0.9954942900131029  0.2324713546094114
  0.7377362215984880  0.9880670970574170  0.2641456146505550
  0.9977130846146893  0.2389650989190152  0.2471977490774957
  0.2536086907191456  0.2318401931329586  0.2535078548077970
  0.4915868910303394  0.2444806935353256  0.2634085424913096
  0.7422558788607034  0.2755632338450389  0.2328005171884434
  0.9936323195358396  0.4925735138554119  0.2758801525806238
  0.2495164409871869  0.4912342208240509  0.2638684567029335
  0.4994917379909647  0.4870283653950143  0.2641257364676201
  0.7503815829032774  0.5045867520116076  0.2517407814590618
  0.9977559852378263  0.7705050034126063  0.2358150135606227
  0.2670478629897144  0.7359426223242261  0.2482659563422834
  0.5054284884009649  0.7432921896762106  0.2433759764048450
  0.7690512181076445  0.7552542554082892  0.2160250436990423
  0.9865863074854000  0.9918916197508512  0.5149685844335310
  0.2465281607576598  0.0072303575170056  0.5030651395780068
  0.4965705303946825  0.9935868105646901  0.5056445189700975
  0.7339070448001888  0.0075433831535838  0.4949638220125476
  0.0111619374259394  0.2349751715681620  0.5113912692473973
  0.2768669451014601  0.2356658043324162  0.4983880635500642
  0.5306639510361921  0.2064731531204729  0.5229244782383837
  0.7540833346236895  0.2563944103523677  0.4935710317168154
  0.0018261398519809  0.5098803044959492  0.4919900868136406
  0.2614077805777632  0.4998828506991656  0.4938939086863664
  0.4975654365460623  0.5082932808167169  0.4896246418149492
  0.7580837566634498  0.4966395173333072  0.4974598098082205
  0.0103991901207919  0.7515508649323678  0.4939299453819194
  0.2564248823210368  0.7316596461341081  0.5074873351684175
  0.5125106835461313  0.7530239365345239  0.4876389735010787
  0.7370793325039500  0.7554926257631375  0.5021665183823480
  0.9945051070890883  0.9928586844641245  0.7544017659331114
  0.2285564067800113  0.9935517658819235  0.7717077791554117
  0.5078989194641275  0.0028626300640181  0.7466215508051148
  0.7602042444637737  0.9917831540103350  0.7415492736426054
  0.0174656189820010  0.2553088237381214  0.7419677174387118
  0.2375245345639174  0.2309817829661667  0.7650237683873881
  0.5119582543167871  0.2644712573026043  0.7525430360048985
  0.7424794597909026  0.2689966969122100  0.7313821171423017
  0.9940427303664499  0.5031179123407375  0.7533776854613796
  0.2370672598632162  0.5203510300370592  0.7471521139321632
  0.4982511406249007  0.5126170479057716  0.7415857907741760
  0.7636029234118177  0.5071835417038912  0.7297444591064945
  0.0130315027788917  0.7447972677755073  0.7348403458193358
  0.2456309581815639  0.7685395924446868  0.7567615914850871
  0.5126240738126231  0.7528533572771453  0.7451522214027130
  0.7634447693356474  0.7431256039450171  0.7436325783096858
  0.0932452520651178  0.1439115099701063  0.1239073584696649
  0.3885167748150209  0.1268225412900838  0.1241509459504597
  0.6472398622056027  0.1071667091575724  0.1172587795014332
  0.8623387415415504  0.1338240629443127  0.1232948846388720
  0.1259024999295351  0.3679087862741965  0.1381053303043742
  0.3785194652025088  0.3811037689483638  0.1215813824739152
  0.6249149054109800  0.3614856132730444  0.1300483463705182
  0.8865084852310000  0.3824738155733021  0.1297606955747103
  0.1213207448603075  0.6354458338498192  0.1193214431079528
  0.3791384195627788  0.6232788022586718  0.1474046259245503
  0.6286299556095455  0.6238351141073101  0.1418886019071654
  0.8862785153195967  0.6084463222674629  0.1140520864686550
  0.1299790916112744  0.8726693794687985  0.1288232838778731
  0.3815121587789274  0.8722896889455048  0.1292020235170100
  0.6281589465800141  0.8716610769775470  0.1318541136482270
  0.8774628435875170  0.8557006273074672  0.1441521379814958
  0.1073825684143107  0.1277730824833517  0.3811555448411958
  0.3632942486911109  0.1294194320705743  0.3849030576253242
  0.6222026295108887  0.1368877912574207  0.3732712283002358
  0.8900318299637962  0.1488825466498404  0.3577224868471739
  0.1311436899499727  0.3661499648994150  0.3784587062601060
  0.3704654807683126  0.3854811247386414  0.3588272591730149
  0.6312734793842172  0.3959054108967229  0.3667654641452901
  0.8589155491685582  0.3919737773180264  0.3882942649071072
  0.1284659027230351  0.6214969316020147  0.3772553753664282
  0.3805199095444525  0.6276966589374237  0.3829182708716076
  0.6199658865944340  0.6293853152901021  0.3710702113878897
  0.8842134782561561  0.6198227801290350  0.3726211485825510
  0.1338352034623083  0.8605921007065616  0.3783140080035322
  0.3642915703572723  0.8617014923906701  0.3836694782345342
  0.6305703277283247  0.8711436269233679  0.3588313377438764
  0.8922181188655935  0.8714154968532914  0.3729091846686471
  0.1188510441831607  0.1361208393425693  0.6178259404984100
  0.3801372168958327  0.1128664171447604  0.6231180684926600
  0.6374859347003723  0.1239745900324632  0.6227742213752914
  0.8938288339373370  0.1113073700334925  0.6153589043934871
  0.1166187561314421  0.3779632894087191  0.6149597681912177
  0.3533298642130259  0.3926894247716085  0.6237224433104956
  0.6203693448526874  0.3705965893918275  0.6455317105808136
  0.8782123666878479  0.3814326319657663  0.6214003274213049
  0.1168209332117149  0.6205879156938030  0.6523895752817588
  0.3821449296019648  0.6313289165356527  0.6150461645098197
  0.6083409517919078  0.6334234488584383  0.6340287576472471
  0.8650150220531049  0.6414014108460659  0.6325579073396091
  0.1274341227261758  0.8661277630170232  0.6185716867530983
  0.3668758048637530  0.8871447824551609  0.6340731882789961
  0.6197920554062988  0.8706755140021478  0.6248181986346825
  0.8796847079209381  0.8798500210742133  0.6191374150008573
  0.1348446484361130  0.1277546891025944  0.8677239602504133
  0.3727945029182648  0.1222920189279681  0.8916512973255607
  0.6343094238881515  0.1340157928843793  0.8647430858407321
  0.8689783062545253  0.1457376606681477  0.8720794408519172
  0.1318809153663566  0.3848927473558110  0.8806525380292568
  0.3732209066065619  0.3660540728645701  0.8814627574282877
  0.6327407756053751  0.3910675931270177  0.8638698825348979
  0.8590664977516947  0.3775472135925534  0.8720943566214827
  0.1280822858558933  0.6387212110405216  0.8740968732901905
  0.3841662302960004  0.6382244196341537  0.8587453328493952
  0.6137110874146124  0.6289033572007305  0.8650196081520997
  0.8801934404439515  0.6234376182383563  0.8725102781284906
  0.1267339489721606  0.8455883183984385  0.8976563607043998
  0.3668186024283212  0.8743322350161995  0.8656205309059064
  0.6329779644247259  0.8740552094593423  0.8674990243286489
  0.8714454419592168  0.8757867756041910  0.8687502908402448
