generated by phonopy
   1.0
    15.9923497217343744   -0.0000000000015236   -0.0000000000010772
     7.9961748610645493   13.8497811253384029    0.0000000000003944
     7.9961748610645493    4.6165937083140518   13.0576988688087816
Na Cl
  64   64
Direct
  0.9906016068539261  0.9922994496577461  0.0031770112732833
  0.2500092724451113  0.9987571181569237  0.0090064407665154
  0.4981131760389694  0.0046639334906222  0.9934645187090361
  0.7564186591139260  0.9944744746394774  0.0161749798185988
  0.9961620483444718  0.2423611554212997  0.0030894669294212
  0.2475225743827772  0.2474921487892510  0.0109226250225996
  0.4995144525703333  0.2417172727034906  0.0076760694943790
  0.7615780330757707  0.2359590516909638  0.0086247720082542
  0.9896745256792124  0.5087249438419070  0.0080250132562018
  0.2559620032440278  0.5093911653877562  0.9990204822513931
  0.5200003061866747  0.5023980551644437  0.9810390550128848
  0.7631095947160910  0.4862821199258228  0.0161863710593175
  0.9878495315530719  0.7537877707651780  0.9960400945542098
  0.2519454675169370  0.7420943529855775  0.0073625102447712
  0.5051002106912995  0.7284785957280587  0.0139942681751274
  0.7444748331160654  0.7365354742402389  0.9981961528972474
  0.9981420589462190  0.9941687111126969  0.2472680142717558
  0.2618816110900561  0.0190403715647954  0.2209311422078589
  0.4937755218223968  0.0048940879250325  0.2458938736806328
  0.7662569196454767  0.9914525982759782  0.2412531761311111
  0.0001124102302863  0.2616195115082449  0.2275632864270319
  0.2455762865536191  0.2533871871886375  0.2577775972652232
  0.4815906785368689  0.2457275862688660  0.2625387341905979
  0.7594048713688646  0.2415294670105373  0.2330460222765417
  0.0071337006081852  0.4970121425312892  0.2563543574823680
  0.2412464789035327  0.4973369344143483  0.2514624314081694
  0.4857713923352104  0.5105174627816969  0.2507687797953237
  0.7407085925438746  0.4967334165739355  0.2684436112535571
  0.0073919936940098  0.7552625779735193  0.2397796149546753
  0.2452389962199552  0.7596090180994801  0.2534829620025870
  0.4849311446071430  0.7527228457364008  0.2614020259930374
  0.7222967708617718  0.7363462594406882  0.2772297487111794
  0.0035338642664072  0.9945190759932446  0.4956872040276084
  0.2530019443572233  0.0001947945818601  0.5038086728028847
  0.4941854585485873  0.0121209651077174  0.5206174655572697
  0.7537431370810687  0.9952282894342571  0.4945098133980729
  0.0135641850392039  0.2606403589552015  0.4699801390787491
  0.2499279547881567  0.2403737612158622  0.5106354931775748
  0.5075009153531923  0.2464314026737076  0.4949952112599140
  0.7410613638456796  0.2465850547807755  0.5009038104181933
  0.9872586115260140  0.5113968477418266  0.5101726974910139
  0.2481559662989563  0.4955841814404636  0.5021106324612569
  0.4813989137333215  0.5075046082023901  0.4942336060518828
  0.7599042966967953  0.4817114334673664  0.5079404633639190
  0.9862447477080316  0.7475649043530609  0.5023739487732863
  0.2626065244887327  0.7573827170553000  0.4744867681612679
  0.5179829124628872  0.7439994317364296  0.5030012686904561
  0.7363359384774818  0.7518370285073546  0.4964039800474034
  0.9963394160098542  0.0100833467663398  0.7569610625860744
  0.2572981114657069  0.9926360126127296  0.7448434414073754
  0.5020765829589241  0.9851113923260569  0.7441147283783899
  0.7408837069327799  0.9982998878097583  0.7748375059955831
  0.9986877461761674  0.2536444933351460  0.7421502152258506
  0.2544197929141466  0.2419667719247974  0.7522803663129614
  0.5006734840684443  0.2466675425522026  0.7483231377859171
  0.7362300461995869  0.2622772352512730  0.7455481814207728
  0.9881043466444595  0.5025756163020406  0.7461840108184277
  0.2511494207503548  0.5039488071452236  0.7349409121475523
  0.4787451535821004  0.5113624714023496  0.7597849228588314
  0.7545495150983373  0.5015288591688150  0.7591563071338293
  0.9990660133385016  0.7492776139699268  0.7532801518142093
  0.2685089238977109  0.7524202009794746  0.7307545547247715
  0.5018535984068492  0.7433376370895420  0.7534825922608537
  0.7445213105085537  0.7504913126852422  0.7579753423341939
  0.1316746006967865  0.1283029461971988  0.1225047203053985
  0.3781884294257220  0.1276900970836814  0.1245106961348391
  0.6186644728951043  0.1281492273666211  0.1119356117456393
  0.8687460103116048  0.1340660872714640  0.1235495747849456
  0.1420393705660537  0.3802133673117053  0.1110742995165737
  0.3661537939378604  0.3768929434184680  0.1280310936678102
  0.6141237138894380  0.3721822648944179  0.1282427879284175
  0.8750939437174495  0.3777304828697468  0.1202622857570262
  0.1053849386175304  0.6240989287037311  0.1253780277222522
  0.3662884072430311  0.6343080463570077  0.1265693550974501
  0.6209303500444584  0.6260506514190730  0.1251337082915532
  0.8714393938792624  0.6287597251296981  0.1159948932707913
  0.1251716489620624  0.8841409907107218  0.1236901202940776
  0.3729356304662443  0.8660836893843435  0.1238441697213799
  0.6385434834044224  0.8653896740044856  0.1221569941807067
  0.8771699453188986  0.8813594898355288  0.1213266540983725
  0.1330910802463007  0.1283616605877642  0.3713608024293121
  0.3686586378523140  0.1317889627959335  0.3668476221280833
  0.6367089248112425  0.1121212867909523  0.3842590571065194
  0.8684697730981792  0.1337096145562679  0.3792144529445872
  0.1127493912418911  0.3778494020320653  0.3770416024497417
  0.3768143260664561  0.3926362866777944  0.3667007604829510
  0.6327917530030346  0.3862470970277467  0.3683053620100576
  0.8679879615682504  0.3921483326026808  0.3682656735442869
  0.1329180136060646  0.6250489428549451  0.3781991033419139
  0.3719400068679106  0.6395556916738463  0.3806850564724414
  0.6143593088359643  0.6360006852709251  0.3818988158803836
  0.8902673737662610  0.6037840850682547  0.3684528769797070
  0.1237122094123986  0.8767974849130925  0.3713202460975267
  0.3561332465458506  0.8843631922382013  0.3764687498265258
  0.6354714184763138  0.8672653077340078  0.3808622466398099
  0.8664340550030276  0.8780657825672173  0.3914209516485739
  0.1445938899641712  0.1155344690244146  0.6287737219383834
  0.3789972644555611  0.1413405081700147  0.6081164306886638
  0.6107396588098116  0.1227049246174290  0.6323975706623790
  0.9011775154922184  0.1153457034945819  0.6094167005330292
  0.1207674663978252  0.3622161429617800  0.6178608519922661
  0.3660156656195205  0.3851379044360562  0.6232789077162350
  0.6218139928778250  0.3656662043641922  0.6339501007991496
  0.8664841624402470  0.3774209243403362  0.6386358629049070
  0.1332486140624662  0.6356999541739332  0.6086736349059144
  0.3611139570208123  0.6048304750114324  0.6412256823656921
  0.6235691507835915  0.6404026062756383  0.6026944625779078
  0.8792133199234349  0.6200606603812393  0.6398012146751016
  0.1161531743023363  0.8797405694300650  0.6281260108786801
  0.3881226794336693  0.8810673171395087  0.6314525627129055
  0.6186262363784124  0.8817702687069288  0.6248832837001699
  0.8842334733923298  0.8589010877054162  0.6254417438731773
  0.1373521108505155  0.1195492446221081  0.8769806340062766
  0.3579113800792708  0.1343106554086887  0.8752507268520396
  0.6253783316419541  0.1228685939943151  0.8893170835210541
  0.8943438928669556  0.1214019097566964  0.8565869221101635
  0.1194484389206570  0.3629947691945787  0.8897559418538465
  0.3952916299732187  0.3678559103331137  0.8711027458075724
  0.6121663248716267  0.3826763068116595  0.8713981229503301
  0.8772504064117709  0.3562533973852124  0.8788129157034050
  0.1232367601328315  0.6310552500361390  0.8639350860332847
  0.3857601375755293  0.6221706703911848  0.8678511006246119
  0.6199994343755273  0.6289939860197696  0.8536720734177553
  0.8578761330955067  0.6296921530381711  0.8868449298025223
  0.1296479039169850  0.8726128100976013  0.8718919658160920
  0.3476850959469113  0.8917613082955888  0.8770656015697765
  0.6119390255957008  0.8765439144239089  0.8776703141763619
  0.8813443966828449  0.8683901689342031  0.8707037037525055
