generated by phonopy
   1.0
    15.9923497217343744   -0.0000000000015236   -0.0000000000010772
     7.9961748610645493   13.8497811253384029    0.0000000000003944
     7.9961748610645493    4.6165937083140518   13.0576988688087816
Na Cl
  64   64
Direct
  0.9954863475792164  0.0060271812146182  0.0048256015108826
  0.2434503367974168  0.0025524624297385  0.0077592351375160
  0.4968545010485768  0.0116401177825923  0.9842096508676625
  0.7430609757239418  0.0110874243662941  0.9842632896662462
  0.9910820066614878  0.2396917065971171  0.0035668132085242
  0.2257748869717653  0.2474519743585879  0.0025330238780238
  0.5064605444928413  0.2521195339446199  0.9868708590126393
  0.7356216655822735  0.2645900192986964  0.0281653619111852
  0.9918148252663732  0.4951292567544516  0.9928997467686019
  0.2525974744067887  0.5024778814952244  0.9917176835849578
  0.5086784569891639  0.4915811525656610  0.9975175149099992
  0.7575367341948007  0.5047983492924988  0.9941201626689427
  0.9925421077852137  0.7738688058816051  0.9854123146000384
  0.2488876681146410  0.7414729553875148  0.0130809159381228
  0.4988144267287521  0.7481885245183467  0.9850257290755347
  0.7564069908435086  0.7611398736830673  0.0066176775032271
  0.9969314738121074  0.9940512561511277  0.2443569571438943
  0.2542992152413180  0.0203296435436101  0.2421601617349767
  0.5139089264366099  0.9958333994906963  0.2454954395882510
  0.7466573998662085  0.9814058175262113  0.2630447542835577
  0.0132873165583962  0.2318210935120175  0.2452537280617621
  0.2570938595362786  0.2293001892597534  0.2568131761629268
  0.4869353623821070  0.2579775551040503  0.2473820633350224
  0.7318132362982170  0.2343936378284752  0.2517147019711794
  0.0191148247000976  0.4956211834279255  0.2504633161708023
  0.2578295050794554  0.5043730145032534  0.2398108501429834
  0.5025565564205277  0.5061743771613495  0.2496315079983850
  0.7417236901802662  0.4983887683113725  0.2618554160889345
  0.0023915175500945  0.7622108619494268  0.2408654391578080
  0.2453985095414744  0.7358496340043986  0.2662982430398873
  0.4982472638814414  0.7652290829053735  0.2378745914213128
  0.7494773176311335  0.7426547805921687  0.2643813866298475
  0.9964431405902414  0.0203389121362555  0.4794915603248875
  0.2470604110456905  0.9967755939074527  0.4963020836760034
  0.5084093596333181  0.9911043325300032  0.4860079582635283
  0.7416347755288175  0.0086248630674831  0.4964071927493101
  0.0054302717416001  0.2487151450400941  0.5032524836636371
  0.2361055492455598  0.2338407196888238  0.5163589423079478
  0.5078507285877458  0.2412015224966592  0.5071759989339283
  0.7448882883474779  0.2529020457868993  0.5161261396743132
  0.0099161392306493  0.4942649616995962  0.5055525320195324
  0.2269419806583508  0.5161205571612412  0.5018110546415669
  0.4967859507882140  0.4844984261188663  0.5238257921866307
  0.7471588551760777  0.5115478509062072  0.5061607406255074
  0.9990082516343350  0.7439929959600422  0.5056808158542787
  0.2625787442686410  0.7316987359276601  0.5151760209583044
  0.5124120359127601  0.7378931605496650  0.5020955778958951
  0.7569399569189508  0.7693652111065599  0.4795085113857604
  0.9993517435046846  0.9990504579990971  0.7526605998969988
  0.2568081686011708  0.9814685553175979  0.7712214888922270
  0.4834322139227470  0.0053180594918165  0.7624174406428689
  0.7673005309716688  0.9912289847381057  0.7585465419607994
  0.0034803664080787  0.2329255646806713  0.7583070737053412
  0.2605360437595592  0.2378962829292365  0.7379066710814852
  0.5194762160897091  0.2423757192579428  0.7549560758371726
  0.7513462125693711  0.2642056276941194  0.7272520620280059
  0.0225581394573334  0.4796653933135879  0.7537171015264774
  0.2427801736536611  0.5052011014981994  0.7367199153731105
  0.4971660720643454  0.4822773796693101  0.7592478792661222
  0.7480029050043273  0.5299260545826696  0.7433727788235477
  0.0044458457579041  0.7668764214159538  0.7316064043042648
  0.2313253908411783  0.7627272485317976  0.7434421824282718
  0.5044771316109153  0.7652255767423917  0.7336931867118867
  0.7723109621357604  0.7255759421787459  0.7678150925287021
  0.1153249024396983  0.1389323725327709  0.1197504234023102
  0.3736428080228277  0.1180277845432468  0.1286077746585678
  0.6229573899579983  0.1317889091715882  0.1284035522621757
  0.8677755501636660  0.1338768469949085  0.1205736816180750
  0.1215205069176992  0.3755914391241592  0.1169017048449846
  0.3767608568274847  0.3738608538239832  0.1293749371190998
  0.6349259365828606  0.3802645025305845  0.1182549230751258
  0.8709496202274469  0.3827750746018757  0.1249091511785404
  0.1138338436985706  0.6380706214678434  0.1077560215095381
  0.3743668022762685  0.6201643271242336  0.1215483416564120
  0.6457221109217538  0.6105216910623639  0.1186832140978570
  0.8867279621105909  0.6268611734614484  0.1278739112071060
  0.1148512806515291  0.8848681500818224  0.1167234459642397
  0.3654760434033341  0.8918533155156003  0.1212497495293869
  0.6309571030085018  0.8757337153897569  0.1307521149559818
  0.8834717951324762  0.8829248516250154  0.1197297327005029
  0.1433952507939907  0.1288638980101216  0.3672342224879069
  0.3999127379788709  0.1036264366593721  0.3801687549345609
  0.6238638185053934  0.1338500269478794  0.3641575142159710
  0.8855584336535012  0.1158664427439382  0.3561941046115484
  0.1215142366581249  0.3789320619525092  0.3795172300573380
  0.3695169082976481  0.3657330947580107  0.3828237042877367
  0.6209564695904296  0.3662445945397395  0.3809520288341069
  0.8749835252007337  0.3792008218690208  0.3639348406799735
  0.1177746883346029  0.6166653541698329  0.3773239493346063
  0.3908785087250163  0.6160494027416413  0.3733386459696133
  0.6351003283046336  0.6309634603336773  0.3655793047025239
  0.8835236984916848  0.6084520895709926  0.3805030916155190
  0.1234728433103816  0.8722859643108178  0.3889810145315981
  0.3654525201293198  0.8690832147789880  0.3824178762165485
  0.6230889264074839  0.8764447987460802  0.3703374668616452
  0.8644919164891084  0.8841644803175963  0.3828841930084204
  0.1293890029582924  0.1226669897213703  0.6160127818095493
  0.3730126488858797  0.1100392178724259  0.6380509360458266
  0.6339126879008382  0.1130754845641077  0.6265865382454392
  0.8673313414806787  0.1206632041945485  0.6307877008861480
  0.1483276613664336  0.3608502038325807  0.6205679397800024
  0.3756938130578180  0.3791575981765598  0.6116973017860480
  0.6042278998229740  0.3917043590419913  0.6246935039301652
  0.8600703754146839  0.3882847595093114  0.6316958750271019
  0.1307509881290387  0.6200286384538103  0.6227242600234324
  0.3780359818897704  0.6271552287468237  0.6331165397413686
  0.6458905925267148  0.6141286708418157  0.6131737684021630
  0.8718611709911215  0.6167405953114053  0.6245482246712460
  0.1361441096951294  0.8832624220414127  0.6294817516832166
  0.3742220368651246  0.8526031485240942  0.6436071477944404
  0.6235714956479765  0.8849585101761064  0.6236031978923298
  0.8681519451556270  0.8761374528585799  0.6195071185057702
  0.1242546927196551  0.1190978795263335  0.8784838863569238
  0.3896211458052541  0.1195420090556524  0.8684682446558363
  0.6189163546223097  0.1283181656578853  0.8643784406081557
  0.8817315648686010  0.1261115456727050  0.8741234569648626
  0.1377377785950784  0.3731529740426698  0.8699620628863663
  0.3691076410679274  0.3884182814010778  0.8661338494039947
  0.6252472155278932  0.3827311691269894  0.8789657308751671
  0.8742645349312193  0.3757809763779810  0.8776065408595455
  0.1409776398376950  0.6206450075168047  0.8747505445452830
  0.3764806158928508  0.6288738807356047  0.8617370410342468
  0.6102790141766321  0.6212243836044105  0.8898848048365254
  0.8829596595299580  0.6308690006030464  0.8676335104668723
  0.1195136608322957  0.8987650935599378  0.8740680170304710
  0.3822572426897377  0.8635560009911483  0.8667553681418217
  0.6177438124472687  0.8807264551686063  0.8684881895976942
  0.8604304553557618  0.8959425340211991  0.8811786959231876
