generated by phonopy
   1.0
    15.9923497217343744   -0.0000000000015236   -0.0000000000010772
     7.9961748610645493   13.8497811253384029    0.0000000000003944
     7.9961748610645493    4.6165937083140518   13.0576988688087816
Na Cl
  64   64
Direct
  0.0089271793667340  0.9899411614454867  0.9963764845000346
  0.2429121666396467  0.0050229150508539  0.9909461894973007
  0.5108676656681840  0.0038844500493628  0.9851662868523325
  0.7324822044630355  0.0006122858309449  0.9892701291035444
  0.0084392768571078  0.2503117988280053  0.9968931041413392
  0.2524833348777677  0.2442407552655685  0.0062871517868417
  0.5059041330028269  0.2369252868827518  0.0143745680901478
  0.7342314106319573  0.2587274898562849  0.0008998032422930
  0.9881358710085244  0.5119675839021960  0.9897311456933017
  0.2402979403786850  0.5077297631555722  0.0016657076251918
  0.5182526625375961  0.4907496617979815  0.9987141874568658
  0.7433633611984553  0.4858564604519598  0.0122217993358976
  0.0062742623585161  0.7379858427239147  0.9959079763607377
  0.2585094728871695  0.7505887532861093  0.9820237571340198
  0.4845793416387640  0.7510944653999808  0.0161365380900029
  0.7503453375969170  0.7540833264536714  0.0013938330473073
  0.0042261753696978  0.9998246132962089  0.2508330826188244
  0.2464279431136584  0.9954799508522052  0.2556849725958449
  0.4916924281248022  0.9993225007308696  0.2449881051433076
  0.7471228738621913  0.0026725986768139  0.2585769189831047
  0.0048831713708817  0.2392713498527320  0.2373021399222336
  0.2642684773168708  0.2536592543801304  0.2302696293107021
  0.5238491196488226  0.2536285320868149  0.2128648086010728
  0.7428515274430388  0.2517442545354177  0.2559970209255255
  0.0003041550450997  0.4805831242590786  0.2707869601894964
  0.2636654825371786  0.4880372289738019  0.2559319965921167
  0.5153299868319904  0.4817738535695848  0.2486367824812440
  0.7546103083357011  0.5112880438217593  0.2420551933118816
  0.0056153071648619  0.7324123946730042  0.2671450737176922
  0.2388013040537252  0.7586508352372103  0.2668939460446396
  0.5219171701232298  0.7446471345234247  0.2447446747171685
  0.7515701316844591  0.7506409026317071  0.2545034403453544
  0.0117421795569440  0.9834778540397889  0.4952956931780253
  0.2594124480280834  0.9938178112567336  0.4942830652853393
  0.4927688835073339  0.9999552428673035  0.5019868949377810
  0.7570646518616300  0.9904666510914947  0.5092235561941271
  0.0053697276246110  0.2680361619821153  0.4851505271814926
  0.2456592776191291  0.2346007849496425  0.5214203300628508
  0.5105741687972042  0.2284840769156554  0.4997511728530327
  0.7488959313975713  0.2600146489656895  0.4911757700143091
  0.0016251675486151  0.4804841057008681  0.5103778368240853
  0.2534198548353271  0.4948615504934378  0.5149547020008202
  0.5037314304801568  0.4810158791290602  0.5094760641222015
  0.7518442016424470  0.5088470557231575  0.4893385906656726
  0.0084596967171748  0.7384906446012014  0.4922825291313859
  0.2499388298344494  0.7465266094482704  0.5064950824417697
  0.4957810965974639  0.7541399686253230  0.4982170567140834
  0.7515622985334629  0.7735466548056278  0.4768695733332117
  0.0153895306548205  0.9909744028436394  0.7363278248050069
  0.2420311587805269  0.0112611710921032  0.7357418115442836
  0.5016060283237563  0.9990830187231068  0.7469872459216268
  0.7405316410031952  0.0142802896907178  0.7422099530512836
  0.0004722379366640  0.2437432700153294  0.7619311549443961
  0.2600598650007877  0.2116664058110314  0.7636062504719916
  0.4885663810218140  0.2683903170359086  0.7513674160559739
  0.7429876533887091  0.2331672103137565  0.7701007560481827
  0.0080233716738487  0.5035993725961796  0.7402766859282476
  0.2676067466694817  0.4925374602084337  0.7506717133893021
  0.4930683368200992  0.5021954047337227  0.7646629187134810
  0.7304715329930320  0.5114252913521998  0.7476289318457631
  0.0236896849703195  0.7249067440281096  0.7655011894136663
  0.2699956092716633  0.7496500124789501  0.7357571626733325
  0.5151607593313239  0.7164687742435987  0.7523077615793003
  0.7553931083845216  0.7687564759537199  0.7508667553637511
  0.1257582914509093  0.1125128241856471  0.1390783924079463
  0.3850521833528528  0.1346689857908370  0.1238898354645513
  0.6222164773183113  0.1216930835851201  0.1025860278260530
  0.8841167485479233  0.1240125700112517  0.1188522990471098
  0.1267135103752421  0.3701225741408911  0.1409879589716920
  0.3765676449170157  0.3635470937508569  0.1170493499089472
  0.6320592800917534  0.3781274080433364  0.1334990581067957
  0.8775209932203830  0.3997891469235611  0.1077585686192646
  0.1058208051269435  0.6322701540376636  0.1389470348097353
  0.3670598352759022  0.6267617524913872  0.1301513302847357
  0.6192213099564384  0.6317923788728539  0.1100123133847025
  0.8741143851642321  0.6206887642963088  0.1262391991227999
  0.1151901411956280  0.8897879248013230  0.1136333436838596
  0.3650263182251926  0.8809432624293539  0.1225697991300667
  0.6135061431721633  0.8895550278786263  0.1220577028338219
  0.8824315646470209  0.8773650755326017  0.1261167491336208
  0.1447228701191506  0.1310915070025283  0.3468620925537708
  0.3866036610826180  0.1135583335993635  0.3799327204842836
  0.6333724284081559  0.1074431413444678  0.3772992083060990
  0.8817887170074283  0.1170741667073251  0.3780138593094535
  0.1129393409212658  0.3781360728068094  0.3759977146907698
  0.3927912827184156  0.3759896134616464  0.3652537356936184
  0.6351272623069449  0.3696771089843076  0.3736470582202779
  0.8608879364295561  0.3814616368703130  0.3820803362484017
  0.1272455837542520  0.6163908736691565  0.3793234677002600
  0.3714408465913772  0.6201354969374357  0.3877091372006656
  0.6268267475393035  0.6114307728457091  0.3894948551187104
  0.8700962481664717  0.6072253016389686  0.3870709458494476
  0.1252842903036814  0.8859754840941282  0.3587347735275791
  0.3736152242876660  0.8707407470467099  0.3674025331477561
  0.6430756865642017  0.8796737964761371  0.3640212427044669
  0.8793031359411769  0.8853480811139181  0.3565306620252696
  0.1251643810588849  0.1205348741268386  0.6397626542639754
  0.3767497700116899  0.1243873012958713  0.6457104670152499
  0.6378958862785572  0.1268524521495356  0.6233268578841784
  0.8776635410126348  0.1262770646174547  0.6207433240328772
  0.1145289334120190  0.3953589615624659  0.6202110873680056
  0.3729022952923826  0.3703657187066884  0.6359388057881918
  0.6270396595171254  0.3915598895381567  0.6222073221360579
  0.8790802264067792  0.3803493177323705  0.6137154400430325
  0.1318318178988087  0.6224683672163055  0.6220034412372414
  0.3567719194947466  0.6339408928377126  0.6309028737246397
  0.6178612392031374  0.6140314076179840  0.6431722573382225
  0.8713827390950672  0.6185940075122840  0.6240669634377058
  0.1105390053219020  0.8900811237506199  0.6101563494726294
  0.3728969579085859  0.8706704015152451  0.6245157118982896
  0.6382329785776822  0.8830592993041511  0.6143896058955929
  0.8677984567745924  0.8754841165461449  0.6237800519827187
  0.1213506793100315  0.1377610610213978  0.8836038496472700
  0.3761682878348080  0.1186355618709457  0.8741185268610997
  0.6150726475498951  0.1067569639848132  0.8927330920284959
  0.8711811967658261  0.1195049641843622  0.8826263871605881
  0.1289298377429017  0.3892938123223946  0.8665545008093151
  0.4001231750997456  0.3655046617903699  0.8634402723101799
  0.6327844807301959  0.3760680109046355  0.8833273832536337
  0.8672513248330844  0.3885848294304323  0.8624841544204075
  0.1099932631516877  0.6311339676853696  0.8900861896933410
  0.3869542473092863  0.6409085235287453  0.8499652208126285
  0.6032730096505233  0.6289675228424503  0.8823071237317830
  0.8863618112847347  0.6278587785279327  0.8833715748085509
  0.1145532460307108  0.8825152784736787  0.8835447183580449
  0.3735700485743202  0.8849584415684022  0.8698840473804101
  0.6289669473410928  0.8675075910684543  0.8674162444037400
  0.8864890521296722  0.8823776129141460  0.8543340914284568
