generated by phonopy
   1.0
    15.9923497217343744   -0.0000000000015236   -0.0000000000010772
     7.9961748610645493   13.8497811253384029    0.0000000000003944
     7.9961748610645493    4.6165937083140518   13.0576988688087816
Na Cl
  64   64
Direct
  0.9808609555954453  0.0161233881272306  0.9946222747971780
  0.2385888601548663  0.9845992704399021  0.0060194901535477
  0.4960375280347115  0.9970552751204749  0.0166097059451553
  0.7433969821738203  0.9984591302766225  0.9951427935590740
  0.0086235996551261  0.2404660876956706  0.9988034021289832
  0.2564756614948868  0.2302143163649388  0.0119622657442821
  0.4865072705032896  0.2639896587256070  0.0046572035508993
  0.7495297369060422  0.2660524806380757  0.9825204195657979
  0.9748896667829388  0.5040593103254249  0.0127272397103319
  0.2257777581818725  0.5182979900339891  0.0115521947725708
  0.5141205156954822  0.4771969223394258  0.9967444591199873
  0.7387518920587383  0.5025054190121832  0.0192566676215744
  0.9917663827487346  0.7366977472798958  0.0029012461336452
  0.2624693917301395  0.7406939594320178  0.0101922664146623
  0.5079114623709705  0.7559207544594402  0.9992271202367240
  0.7404007650261970  0.7546785171428174  0.9998240757023733
  0.0097552430883439  0.9894681820750313  0.2432881718723550
  0.2310760551800828  0.0157745931426368  0.2629802685862513
  0.5016995142734303  0.9980018084312040  0.2483604563098750
  0.7501835183258129  0.0151308397791506  0.2312447934645032
  0.9759269357579237  0.2847443454343107  0.2385714678610801
  0.2424785283798314  0.2512311583028281  0.2635639595493516
  0.5166968340138542  0.2318944905142296  0.2534794528796475
  0.7804482619854627  0.2446237901527822  0.2478145461905518
  0.9883299099989382  0.4960376589455176  0.2796039973290380
  0.2558307254735245  0.5063488407773321  0.2341292982287703
  0.5025120655088063  0.4946850403448923  0.2431316239067234
  0.7515061778608987  0.4798035254642293  0.2676539798502992
  0.0112923822956312  0.7467392009663649  0.2609649844159297
  0.2311465909707965  0.7690999837430180  0.2420513281413413
  0.5019992693651447  0.7604742708587271  0.2499448555371494
  0.7487878161511676  0.7623805629575460  0.2434483910082298
  0.9969938062381107  0.9874567358916263  0.5084010212000415
  0.2462785082841049  0.0004629124383042  0.5048814171068691
  0.4958027086627892  0.9910958825514314  0.5316618223400249
  0.7501482624565927  0.9918165699605018  0.4978424124781857
  0.0057533976474938  0.2718725833308716  0.4968431251012179
  0.2477198037985089  0.2441193532703606  0.5171352892558684
  0.4868662280527822  0.2579566729599738  0.5004759556464889
  0.7643998886434519  0.2373918649904856  0.5038804780171170
  0.9994639592849487  0.5087468653845673  0.5076314813800396
  0.2509280308508148  0.5006550242403945  0.4916320187615782
  0.5001469208082648  0.4918638802070774  0.4989503705455998
  0.7294724841175927  0.4991631108465918  0.5082567774176807
  0.0045871269058848  0.7403084698706806  0.4926453621729912
  0.2699983072825599  0.7474761992643076  0.4938075243501373
  0.4943534774887248  0.7452686841079552  0.4924210333580242
  0.7577027672308142  0.7376370865199003  0.5056295626887072
  0.0018365174803460  0.9860346280755408  0.7675636590198939
  0.2639224086891790  0.9833887870994932  0.7474028635899408
  0.5059311594618633  0.0010582481912832  0.7389373261660774
  0.7501756517126407  0.9902665761064356  0.7620650071581339
  0.0006294538491616  0.2476158674027523  0.7560301858461579
  0.2451637339301808  0.2445442441327360  0.7489531554483309
  0.4857288668742219  0.2720503752597953  0.7508683630698518
  0.7399599544315459  0.2573146864602858  0.7483358576433444
  0.0038186588501975  0.5226989104966902  0.7371317996769666
  0.2461175948952569  0.5112013633850183  0.7539223047655224
  0.4954137262270082  0.4948444953297909  0.7613953946065616
  0.7382133574786919  0.4933975002966880  0.7594715958389869
  0.0072265745614392  0.7681178798876319  0.7350137512692259
  0.2648506246297304  0.7577579833256715  0.7351381488216392
  0.4958766868275022  0.7574736044996261  0.7532313319258374
  0.7506280365037649  0.7370459328743817  0.7494855436046066
  0.1201293899643661  0.1342467165439558  0.1367047554615989
  0.3565251028904100  0.1265396012163743  0.1296017357289672
  0.6449266184185044  0.1190337430625036  0.1233472577281963
  0.8958611074780557  0.1091238130733535  0.1153865722587655
  0.1237727862212151  0.3565939633350184  0.1352327257462997
  0.3794192958311444  0.3728724462017943  0.1258371017770949
  0.6352545119511557  0.3631318823559138  0.1227854344495641
  0.8819555963713003  0.3682097132506398  0.1246138914166565
  0.1306863374444477  0.6406155440729808  0.1142223673726535
  0.3683697920494599  0.6251902996194667  0.1199019336368108
  0.6140885105646159  0.6249156722794939  0.1333907814081188
  0.8698851625397466  0.6325984554617019  0.1274653123552652
  0.1211997276647721  0.8728004738105007  0.1277958937040881
  0.3646430637779320  0.8830477433289171  0.1201684523801436
  0.6192469461900467  0.8838914004399437  0.1372257580830469
  0.8829455564372544  0.8753375708675369  0.1229332529726106
  0.1426309030630786  0.1229172251865107  0.3607410583666792
  0.3912651495485980  0.1237024559452320  0.3644687671444537
  0.6141270309735849  0.1245923929314714  0.3803827127221096
  0.8925423094988746  0.1281883209402180  0.3652777221180473
  0.1238655105877816  0.3692806944044884  0.3836528752330114
  0.3769577149903234  0.3884803335808604  0.3700185209656738
  0.6189328211542398  0.3834541522893085  0.3698885299283501
  0.8865891538974517  0.3890934748439461  0.3680074266310839
  0.1145966481084213  0.6254907713685322  0.3842325230017732
  0.3594624866715174  0.6257989869696154  0.3863139384483552
  0.6300949994931982  0.6089851809884562  0.3818261964355143
  0.8737375974022955  0.6163054487424018  0.3781041604545341
  0.1176830214157645  0.8876869449826401  0.3826719355763753
  0.3781651336510028  0.8590640733960576  0.3866974199681786
  0.6091417308006934  0.8696710315918108  0.3911323465425018
  0.8859765238457830  0.8491788608894965  0.3914179640440683
  0.1308069378348104  0.1220641519272894  0.6200556235216597
  0.3810938749377557  0.1278866325111828  0.6346650649132715
  0.6160473893445196  0.1383483095638279  0.6346112332555712
  0.8805054376069310  0.1185711112170161  0.6282180115233862
  0.1307960789551962  0.3750083038342826  0.6312647453236203
  0.3793211512266285  0.3551778419041084  0.6442576923995933
  0.6133294611059280  0.3777268106237356  0.6341425256953857
  0.8634094455952912  0.3783367425744777  0.6310970486176357
  0.1213171958033625  0.6162258119953852  0.6170190636103058
  0.3767928253978953  0.6179886458310353  0.6392785504982050
  0.6233663110882366  0.6364201712251455  0.6104339479150354
  0.8809554928620120  0.6201900731550309  0.6292215456523499
  0.1220578438176653  0.8772269891728307  0.6228730140273018
  0.3669584317943602  0.8926545125650437  0.6080904529082879
  0.6481252918368829  0.8776680031763073  0.6189323133266699
  0.8624222646002705  0.8762271698964176  0.6236190718236346
  0.1395208768817775  0.1188719167391893  0.8639473217458669
  0.3765303497479638  0.1156495348405605  0.8918418706601811
  0.6135960013732356  0.1309578521361748  0.8805102274027548
  0.8805528071638351  0.1250113180338514  0.8640883439821874
  0.1149458560311371  0.3805742874885329  0.8855178148823588
  0.3787842129384402  0.3761211311253598  0.8659810621910984
  0.6124965397362835  0.3859421823022718  0.8796580520168857
  0.8958803539095614  0.3616260172837872  0.8739722931492695
  0.1466352655115487  0.6202921436507604  0.8662824182517062
  0.3756775470254139  0.6293432305359981  0.8793476598220578
  0.6181799023528972  0.6241153587450637  0.8769470006319953
  0.8888698789075679  0.6311280562404352  0.8629570346986563
  0.1373675007205639  0.8702664476381274  0.8657034957016840
  0.3777018927435088  0.8700753868998681  0.8808200378820017
  0.6238678609565912  0.8884520953948251  0.8661664037942938
  0.8750085805269275  0.8690966211667559  0.8821006024319247
