generated by phonopy
   1.0
    15.9923497217343744   -0.0000000000015236   -0.0000000000010772
     7.9961748610645493   13.8497811253384029    0.0000000000003944
     7.9961748610645493    4.6165937083140518   13.0576988688087816
Na Cl
  64   64
Direct
  0.9839847985589112  0.0105474104360217  0.9930609684295193
  0.2642416999066846  0.0023080831886800  0.9841249491986793
  0.4856213442180847  0.0000415784528686  0.0169868311024432
  0.7312374608006761  0.9989829207417489  0.0192070286525548
  0.9832025027588481  0.2369433244540825  0.0127099748254581
  0.2453382716904167  0.2510998854044801  0.0017313698772130
  0.5019798814042683  0.2553971528159217  0.9887776753369406
  0.7469363956937579  0.2347888431823784  0.0108980371972635
  0.9969662915626943  0.5189617139566307  0.9916114450305331
  0.2547030529635736  0.5053630147498986  0.9948484386266798
  0.5141364863491147  0.4898154533901845  0.0052752730776406
  0.7418789038976592  0.5003701547739676  0.0109148159402275
  0.0031744021676920  0.7501968460147576  0.0002448383725680
  0.2711583591509031  0.7308703099015281  0.9947941019976332
  0.4914804501017990  0.7528545736775701  0.0060269551706939
  0.7550402653031506  0.7595080244992146  0.9960803590296731
  0.9709360005521359  0.0206338701117802  0.2459469995196169
  0.2446358971545579  0.9991215517423426  0.2639093953294121
  0.4965169044730846  0.9979735565012251  0.2441999989247030
  0.7473081125304135  0.0007568995192716  0.2502191753434028
  0.9966619384949442  0.2350688416764629  0.2606184063164979
  0.2517047738079277  0.2372834987542602  0.2480107637925097
  0.4933922690932120  0.2511691979973627  0.2466528884141646
  0.7566735499751247  0.2418759254480807  0.2721858871709609
  0.0072578959853916  0.5122623355755542  0.2468297824457911
  0.2569503134278543  0.4957561532124738  0.2425908954496285
  0.4831895747619705  0.5184716628402531  0.2449286851359989
  0.7540426882329289  0.5083655084509767  0.2426346944392467
  0.0013033038606728  0.7347761869191736  0.2747112551697872
  0.2353263947582931  0.7615044978756519  0.2432521916651198
  0.5083090716873054  0.7434509883327614  0.2345756392669719
  0.7440176150897347  0.7538574755395256  0.2569464874581994
  0.0042286899777289  0.9949076321668218  0.4981768873843542
  0.2407194659663269  0.9891806247579826  0.5078266011685783
  0.5054089747946237  0.9952401725175712  0.5022667282350297
  0.7394251973361028  0.9997539060718845  0.5085139373586577
  0.0094455068851578  0.2585009016167883  0.4884165757450101
  0.2485181909038253  0.2662774097734505  0.4987861348904267
  0.5000276293234144  0.2404603778205276  0.5075326747485954
  0.7518475115409272  0.2533229607430302  0.5059847989070840
  0.9980278947531814  0.4845055150533191  0.5129561611969362
  0.2545225542935593  0.4974337760973664  0.5098940137881499
  0.5050435641746189  0.4920371058516113  0.4945565623333197
  0.7547731916012228  0.4926604923011477  0.4875456890309073
  0.0034599063260814  0.7425358008752425  0.4989547989588998
  0.2491141521084752  0.7616602449564267  0.5011167817998456
  0.5026560717009401  0.7440057523433463  0.5088072515365424
  0.7559252567731024  0.7391066333218732  0.5198591206953386
  0.0138593604724040  0.9687149349504673  0.7695776308352987
  0.2707612347291769  0.9985529417732251  0.7448571783398689
  0.4823118586857515  0.0010052901105171  0.7609911402201002
  0.7460737575156735  0.9970606348269102  0.7611546060079355
  0.0043745105461257  0.2483408472535623  0.7571048190853463
  0.2716065201925787  0.2484974349601296  0.7503492754523999
  0.4932325605673442  0.2461789780326006  0.7557228768295097
  0.7426055276408998  0.2629965158117246  0.7463563158872466
  0.0146179242216079  0.4889797759494973  0.7441845205542902
  0.2619054699933511  0.4900483600684610  0.7459129681594466
  0.5132964398204884  0.4992901752198813  0.7378320608512566
  0.7542735056922401  0.5124725297759165  0.7346263566493820
  0.0014416777441754  0.7525511148761160  0.7462716550153831
  0.2416043965430966  0.7325677472247408  0.7537051177289803
  0.4934256655059793  0.7447460963801648  0.7543663779973604
  0.7701789838147791  0.7318459676469693  0.7468501966971848
  0.1235110942713016  0.1193452112516876  0.1260130978441300
  0.3715403486791252  0.1335832334604831  0.1180137972583426
  0.6039881353152413  0.1388213782345780  0.1202644534250009
  0.8730944106031516  0.1187824312830979  0.1333593533606972
  0.1297936164663921  0.3741077137085342  0.1183567372816968
  0.3656277102485636  0.3566177393776449  0.1457817381580865
  0.6266179541398396  0.3709593489487046  0.1221676850233079
  0.8841312765379865  0.3822902816639751  0.1275241443705101
  0.1431967846760724  0.6155153314203872  0.1224337940836716
  0.3659605324702276  0.6280220819638906  0.1330225956702012
  0.6551648188244574  0.6077890831471306  0.1129290667035156
  0.8830409433110329  0.6284417959578952  0.1249619605144309
  0.1309657270360422  0.8789477818089672  0.1247910628615681
  0.3657582822957964  0.8731465967627943  0.1293861112506657
  0.6486441123354364  0.8723289722800217  0.1125330995530887
  0.8800873798861946  0.8753481160883914  0.1235841472062316
  0.1148835664136749  0.1345289992963928  0.3806186535957735
  0.3712082047322639  0.1128186956605908  0.3893644504042919
  0.6406723412063057  0.1292566203759610  0.3627487217490337
  0.8677439991982081  0.1259122915456780  0.3827704272426392
  0.1285734948891378  0.3767964283231935  0.3827103693167231
  0.3672571283996136  0.3655726413685513  0.3756275765396127
  0.6126203200516503  0.3770927104801984  0.3825137922436311
  0.8848035835051076  0.3969168665703874  0.3621510251059767
  0.1150560083148751  0.6383906343853554  0.3790848350725325
  0.3767765761103743  0.6339643979889775  0.3770868281973968
  0.6398784200581648  0.6259617706843752  0.3732510431403681
  0.8878493797999762  0.6220162335733997  0.3719948053712698
  0.1209676127531094  0.8644828601860510  0.3832493329417433
  0.3785993319912613  0.8640494791047048  0.3611446862463108
  0.6172950046658776  0.8895944417772113  0.3751523206136628
  0.8675936955633936  0.8828140514677031  0.3572503198052960
  0.1297757082029647  0.1188016024925864  0.6358730020300759
  0.3812495382122724  0.1433954264974752  0.6178234190651943
  0.6135589148583455  0.1292224344576937  0.6334710147938907
  0.8734942470406954  0.1329341486938883  0.6201447906209110
  0.1303541872734834  0.3622819868480378  0.6208732748436698
  0.3959677109773296  0.3704825116289573  0.6241747648356661
  0.6205594022416665  0.3884247549018333  0.6142154723740134
  0.8922984116452773  0.3630465149517380  0.6036673991518811
  0.1114648707365581  0.6247788579669887  0.6325639487369605
  0.3925188914709902  0.6124362469746689  0.6214767652484103
  0.6149159181857375  0.6424997379712422  0.6180391530966020
  0.8647106994196185  0.6263781076836339  0.6267331252945673
  0.1352652178530380  0.8827920721913070  0.6112185969343070
  0.3728520462033131  0.8951796945718135  0.6237757073746921
  0.6304000338869187  0.8831397327361021  0.6186392336609036
  0.8764997639411352  0.8726892878397331  0.6247008246239347
  0.1396518926251138  0.1316466725597964  0.8521560661184506
  0.3808478335439498  0.1192763731995708  0.8605854689907292
  0.6289359433496061  0.1250202784093782  0.8821976961549025
  0.9010660089974256  0.1022079582049757  0.8672355034604295
  0.1081275339963902  0.3842180654091211  0.8738180096377868
  0.3778006079892834  0.3649314997778272  0.8770653298267227
  0.6299073367051296  0.3735262867722066  0.8608967287662790
  0.8718551575825926  0.3501790452975549  0.8888629356828383
  0.1313841375662634  0.6296112275553500  0.8613042822988938
  0.3641044598001490  0.6430095429945470  0.8779146387156170
  0.6209568277548092  0.6453931367520422  0.8551161385614469
  0.8476278105678932  0.6418031724373241  0.8754455464572199
  0.1318244925527456  0.8719398477104342  0.8781931093034575
  0.3770538397718077  0.8793854438920198  0.8781465198478628
  0.6272499987935466  0.8655623436688443  0.8662149854617184
  0.8729508046693357  0.8666648574946270  0.8839496545984764
