generated by phonopy
   1.0
    15.9923497217343744   -0.0000000000015236   -0.0000000000010772
     7.9961748610645493   13.8497811253384029    0.0000000000003944
     7.9961748610645493    4.6165937083140518   13.0576988688087816
Na Cl
  64   64
Direct
  0.9986047018808811  0.0017625167414385  0.9961477293401531
  0.2397973923015870  0.0012916840533731  0.0052075578460493
  0.4998797047797698  0.0080783134042501  0.0061191241391822
  0.7565586387015302  0.9927489624093763  0.0043934735617763
  0.9999366283092523  0.2239857035164603  0.0022634128270860
  0.2567129274258023  0.2340349730349907  0.9918421399080480
  0.5044493866673359  0.2397506806510883  0.0022961070117131
  0.7544869737373761  0.2391811808217359  0.0135398601482829
  0.0132409862291486  0.4769154792016952  0.9957166609749992
  0.2518102417114737  0.5261520481063986  0.9718425281948357
  0.5061199234923578  0.5201966508255058  0.9755511838615082
  0.7549231518063143  0.5062258577379910  0.9940088053597361
  0.9946726744988619  0.7639116264897845  0.9926701268809459
  0.2500354842714646  0.7452899380881658  0.0022109714097199
  0.5063317313227856  0.7570838844008059  0.9948392504304627
  0.7429491835285783  0.7759186748936786  0.9837009718295150
  0.0037510856877153  0.0014094835002539  0.2712894871360069
  0.2514758337508319  0.0067672639606574  0.2517406951574609
  0.5097569207611947  0.9954213101243602  0.2559368580112163
  0.7300984035200527  0.9978167960497363  0.2696737340156017
  0.9920804239544521  0.2470385407556253  0.2439691910705486
  0.2566328933385822  0.2476488624672248  0.2430922327178735
  0.5020436092117989  0.2621991654679660  0.2470834344050030
  0.7540969230788189  0.2794834754148093  0.2257433833750519
  0.0098052829386252  0.5058616270024715  0.2442504435655270
  0.2389112112735108  0.5208278980939995  0.2481584206961932
  0.4949595785844406  0.5111877762137716  0.2416202281084921
  0.7338409209719826  0.5076390593975038  0.2546363122870230
  0.0005996738148303  0.7475334747591498  0.2413858021488794
  0.2269862889545505  0.7793236198645976  0.2509939387460999
  0.5049679928432705  0.7470512832853684  0.2613849242966458
  0.7500063002125529  0.7585392201785349  0.2494347951250891
  0.9847373820373403  0.9958361102817026  0.5159292236712988
  0.2697529598649551  0.9878602610483052  0.4957404696609249
  0.4877860197303960  0.0239447760701878  0.5038342497444176
  0.7546664800676821  0.9875230622645971  0.5121746161823496
  0.0010357743271945  0.2566936316550939  0.5101055722485517
  0.2509777513132249  0.2526245533369849  0.5027427555974363
  0.5032168650476959  0.2319506302420529  0.5022737802883179
  0.7536177053037985  0.2293595171677627  0.4996626557082530
  0.0092382524000215  0.4915033199201581  0.4845395335301383
  0.2540796950967518  0.4971256451814553  0.5049316135414360
  0.4934530416103906  0.5060828041172166  0.4913111445597553
  0.7420728199862061  0.4971493567333634  0.5022336784307471
  0.9889005549698580  0.7462076410266621  0.4924006775920142
  0.2653650854064890  0.7350029946400940  0.4916277051080121
  0.5129788927197877  0.7597537901056624  0.4792886086304150
  0.7530693485038935  0.7442677641689831  0.4998548531266648
  0.0089674368309872  0.9951696442713343  0.7438993247180681
  0.2500068531570667  0.9789652400825706  0.7487192588527523
  0.4843560786236190  0.0049462276963272  0.7482428772971613
  0.7562362239526730  0.9946762182093928  0.7517553871134544
  0.9954345897117902  0.2643788278077199  0.7409832424120342
  0.2775197808806755  0.2340024145934185  0.7437674193543288
  0.5003817411633966  0.2674489033812086  0.7446220973439707
  0.7239266626458385  0.2663916664207430  0.7611217024171076
  0.0175123201550656  0.4765719625617736  0.7535989656188071
  0.2525746482664790  0.5092386070015591  0.7319937418651988
  0.4935979275137128  0.5106961823504422  0.7485699157156385
  0.7575831272374174  0.4988314645518128  0.7466326647395322
  0.9933810762479973  0.7594674048338097  0.7577513421785470
  0.2355864272491171  0.7559879801878995  0.7567678634004330
  0.4853276166857327  0.7571272203125848  0.7567257128427133
  0.7558355162324517  0.7330209998034599  0.7711439367046182
  0.1215868137820121  0.1159317491731342  0.1386203611403404
  0.3770133752303642  0.1210463219719697  0.1143743278019507
  0.6279788428105842  0.1357338451482541  0.1242051205322040
  0.8768927105387009  0.1284219741913632  0.1311426164334542
  0.1206261470512138  0.3752285349492578  0.1441950166109012
  0.3745429908109383  0.3740942666435062  0.1222140388256050
  0.6265100018498231  0.3730858267981172  0.1096303541965908
  0.8881396595430371  0.3633231606146370  0.1421405968756433
  0.1286147873688845  0.6164559235172455  0.1365530369620800
  0.3739825227927259  0.6337616354285535  0.1152958326159612
  0.6113655330668444  0.6268713043256344  0.1250064067326211
  0.8662018581993243  0.6408973012390570  0.1203649966443611
  0.1246836861285457  0.8740332077394265  0.1391658100810290
  0.3866508495775530  0.8722409626318833  0.1247023667122918
  0.6259470857256955  0.8781438773479365  0.1190867135949406
  0.8668823483484096  0.8934684382724076  0.1322064119033465
  0.1206311247932246  0.1380149514980602  0.3696784629878454
  0.3716525724567176  0.1220825762933476  0.3752871502465233
  0.6329038275378577  0.1351104514890928  0.3667325776721379
  0.8690521942718252  0.1414873651790840  0.3793257309419090
  0.1315563426146176  0.3870080995574727  0.3551775681835525
  0.3660032475226647  0.3686384261872547  0.3795890666539691
  0.6234028809378317  0.3734832994205792  0.3701186610638367
  0.8653979546608174  0.3714430107641482  0.3670964429094176
  0.1109855937818152  0.6344858025261738  0.3658508566122733
  0.3774149932064292  0.6221643757696033  0.3690920292029618
  0.6276028812554357  0.6246035309943885  0.3772355157276378
  0.8762886899792064  0.6115282777036378  0.3909728395018193
  0.1150133837231555  0.8621535174832486  0.3880354924813463
  0.3804509639220505  0.8605941559027174  0.3677153443550598
  0.6232298665898751  0.8820674866437513  0.3791442961622558
  0.8730721305522494  0.8887737893399686  0.3772293151359279
  0.1222688212644460  0.1284994692402489  0.6251596021507538
  0.3640321488483507  0.1414465955258221  0.6267613600401120
  0.6263371611301046  0.1224558589049027  0.6288395333994509
  0.8685401142097782  0.1163380240960743  0.6207935989234438
  0.1097936351364293  0.3794160330992392  0.6244604780535474
  0.3797762222324228  0.3786190483253575  0.6165224879080694
  0.6231624016914094  0.3849509958883342  0.6145472767805641
  0.8719621813165088  0.3633464432123473  0.6331672753826306
  0.1431080265745107  0.6062436375356958  0.6398034205725494
  0.3623147210137701  0.6340747812551791  0.6249874646813366
  0.6201318014227203  0.6306130083836876  0.6356265029757733
  0.8706624429969237  0.6251933708718007  0.6370696859887226
  0.1284942646406411  0.8817724230170055  0.6166923397290687
  0.3844383968258275  0.8571238250638120  0.6325270076576923
  0.6155096109918438  0.8849509353413110  0.6180195231199231
  0.8548808241527422  0.8673663204076598  0.6496188174538330
  0.1247026768356092  0.1335398216528925  0.8799182577624588
  0.3853266947688245  0.1108269880064846  0.8829202297039761
  0.6219298110865770  0.1205622331900745  0.8786022624826031
  0.8705235307492010  0.1258400592311193  0.8860981952875217
  0.1185404492992762  0.3765270585469400  0.8884793252098802
  0.3755872530668631  0.3723354239781987  0.8764094379458541
  0.6268699102801154  0.3744924459108517  0.8647754816072617
  0.8883340568385186  0.3635586971653734  0.8764170961074110
  0.1117359305525261  0.6353936622549494  0.8802948596895454
  0.3831298364460879  0.6208018508039601  0.8672038078067188
  0.6144737759763375  0.6311515348186321  0.8672563750389781
  0.8706114921744723  0.6150331767412845  0.8880980803993166
  0.1294613252930160  0.8796335673488067  0.8756251256454739
  0.3751571799719328  0.8670557458504341  0.8732537979445238
  0.6346393461257153  0.8845606027492637  0.8588626151557776
  0.8843071191767778  0.8726433322495482  0.8587372612960400
