generated by phonopy
   1.0
    15.9923497217343744   -0.0000000000015236   -0.0000000000010772
     7.9961748610645493   13.8497811253384029    0.0000000000003944
     7.9961748610645493    4.6165937083140518   13.0576988688087816
Na Cl
  64   64
Direct
  0.9880254294495376  0.0204774927005219  0.9878220013654868
  0.2533860018967528  0.9958289537825844  0.9947349262024571
  0.5129215467077779  0.9815033331308284  0.9932562873536560
  0.7495527355217219  0.9882857305497443  0.0039087492803632
  0.9844155462539012  0.2477378871923133  0.0164204141536448
  0.2426923403555019  0.2467776887478896  0.9957315741769116
  0.5194092031320781  0.2401384767256936  0.9997756900144761
  0.7696825017746682  0.2421097974830004  0.9984572426279789
  0.9956911431687175  0.5012727757033880  0.0123391809247820
  0.2518749064594518  0.4998846722784606  0.0028426569040625
  0.5037187088498151  0.4996019631039078  0.9980131656873102
  0.7391691896465209  0.5039024895562597  0.9919067614055550
  0.0216500918897772  0.7444609986975146  0.9795319991153213
  0.2539147141914421  0.7703359180665950  0.9799184088983824
  0.4942758989744152  0.7581408068517954  0.9876876048097522
  0.7383766333272647  0.7595036234968663  0.0150404033419000
  0.0155499766603130  0.0064540452655084  0.2403120841346026
  0.2603205094213863  0.0046569884132783  0.2648170838990473
  0.5170558388756813  0.9960435450008919  0.2480088841293803
  0.7578162552560621  0.9879256083028028  0.2482015319833062
  0.9889644012608523  0.2685112541200336  0.2450247044397089
  0.2561675475777386  0.2282175483865536  0.2610997723957854
  0.5117227268137995  0.2552348831833867  0.2633771851969363
  0.7589189322497643  0.2258391373445015  0.2659761044126291
  0.9949356041017750  0.4899713193515028  0.2633417938376502
  0.2560219184379057  0.4867876272236899  0.2608416938063639
  0.4906536665680882  0.5170102103193570  0.2511248922245827
  0.7464097398377191  0.4843244692935564  0.2706225803179297
  0.9773056817033525  0.7531674470911852  0.2635624143940776
  0.2447557761031041  0.7641928347608927  0.2446451771023253
  0.5009988490118172  0.7472693110537206  0.2517280507604405
  0.7507952574269490  0.7581041493331262  0.2457544237025666
  0.9796274781693228  0.0089553468524489  0.5067367337711072
  0.2463687685909190  0.9807722477297900  0.5083201316368089
  0.5038846603790044  0.9853930071198449  0.4889138270247371
  0.7306716002658475  0.0201494214778528  0.4844177515581399
  0.0209921975610647  0.2302825284184323  0.4959584361221733
  0.2518747065140532  0.2503333918580166  0.5176802303722615
  0.5128633442441469  0.2398135041904995  0.4892832469468705
  0.7421567654924407  0.2532250906464881  0.4832874864526560
  0.0038025360011934  0.4940749266857921  0.4991360612779993
  0.2493373184501134  0.4868745782396307  0.5054574952702462
  0.5000918733796117  0.5059941283899440  0.4897535869624592
  0.7375879027636352  0.5030792845648675  0.4981340294388008
  0.9909943619418140  0.7372200795014512  0.4997990785328536
  0.2309091244677028  0.7440401430311633  0.5214755105931713
  0.4856922576249388  0.7317175460064473  0.5182085308282501
  0.7476019845704126  0.7314155391139372  0.5102056067877321
  0.0011459564864992  0.9951736712978649  0.7401292205998508
  0.2531089111838637  0.9894093403759703  0.7392753979232614
  0.4874560081519345  0.0035811906857022  0.7592295547972940
  0.7639539395892576  0.9943800666724519  0.7335360282159241
  0.0059165054277087  0.2404128847144635  0.7568026767529660
  0.2356072937279798  0.2622628823976884  0.7473828935421571
  0.5211361196240769  0.2451902246442064  0.7500235541407821
  0.7526119037234075  0.2254997228298122  0.7490769860491537
  0.0001697583994664  0.5108781763256491  0.7473989627575821
  0.2482511168075772  0.5052167318645754  0.7524479536084842
  0.5103041014039715  0.4884677341922873  0.7462845383465888
  0.7534462296064193  0.4888582313463326  0.7594001090134729
  0.9905908554119175  0.7570445689351463  0.7592218261679853
  0.2436126277738098  0.7494329225578565  0.7493452656304367
  0.5045354145494636  0.7588337417076613  0.7317043984168365
  0.7417792356101961  0.7770514742823333  0.7397961620384652
  0.1407298820929475  0.1236262907527907  0.1169502231770203
  0.3817295127572689  0.1331878544301838  0.1183854110955515
  0.6210222789180553  0.1230319175765070  0.1160874114398063
  0.8792137459386627  0.1298027345095808  0.1230836940657910
  0.1165292839231120  0.3810314083800042  0.1269990139648909
  0.3615442640931671  0.3777113423142130  0.1345799147612552
  0.6139675073237962  0.3559851585825102  0.1441369397703265
  0.8775774640251696  0.3843662858955455  0.1244900540044267
  0.1063841902501799  0.6303854181821548  0.1341749083383656
  0.3886850945175014  0.6305619383928518  0.1340667080986316
  0.6223056947643663  0.6248716508032294  0.1269320932786192
  0.8629067085499005  0.6221696633463440  0.1346849316844240
  0.1312217716133992  0.8536835774542159  0.1281235459337863
  0.3883552001747158  0.8743694084679557  0.1259228752263743
  0.6168899023548704  0.8713814357576940  0.1233428640495054
  0.8648734176581990  0.8717870779469362  0.1237182143894102
  0.1167600189706006  0.1122701918229088  0.3933515980558929
  0.3601349199216070  0.1333621610082329  0.3885388764526787
  0.6213054262817821  0.1294907858488817  0.3706121866820589
  0.8868021741539140  0.1172501070339442  0.3705816553154028
  0.1350385141394490  0.3721722338516894  0.3794619314150742
  0.3768546567903043  0.3623027443721009  0.3731578011790840
  0.6084941693577792  0.3712163010387451  0.3858002473555868
  0.8713417913985456  0.3639036039137666  0.3834532186905681
  0.1237667445034202  0.6249914197175990  0.3787560271146224
  0.3802961857599495  0.6166347289213694  0.3804149823884507
  0.6414533842346305  0.6204187391259974  0.3709449416900457
  0.8696045673544519  0.6250683613215684  0.3815114651959011
  0.1181097374693284  0.8694244200543993  0.3905239753186335
  0.3641614863832915  0.8696487167203211  0.3867249280685083
  0.6402511964334834  0.8806411527037122  0.3526077124940689
  0.8640203755333948  0.8581304398591242  0.3873630806196683
  0.1217965744858946  0.1307378256372630  0.6137670064620181
  0.3802610492662514  0.1290665115861255  0.6257213729708511
  0.6285258564546049  0.1177726195883009  0.6337750651762110
  0.8691922294760464  0.1252943202288779  0.6372707170802987
  0.1215421501107823  0.3772259363244219  0.6126046251786601
  0.3897097968977314  0.3638890858214341  0.6181523260203156
  0.6171575344077708  0.3705147272463346  0.6321905877559403
  0.8828091416642360  0.3727009829100459  0.6267502824807519
  0.1270931332244033  0.6109266199989971  0.6141791155779787
  0.3691495680029896  0.6289555199232966  0.6305653097917527
  0.6141537372074948  0.6240120226048985  0.6295367307955863
  0.8633400986002595  0.6215015913952180  0.6258371905750217
  0.1270399229857435  0.8833251084033327  0.6257996018058039
  0.3708703345296372  0.8707996546238757  0.6439649470990380
  0.6311431122137364  0.8537970485630848  0.6419522111796184
  0.8841209460117696  0.8858833310319769  0.6210672200745535
  0.1267087798882153  0.1191067883870633  0.8655588131363092
  0.3822905419847076  0.1225267258424549  0.8748557710351272
  0.6213387017506333  0.1206879326010387  0.8759821403900643
  0.8776131978410624  0.1326869153790391  0.8772728214133408
  0.1385926922024604  0.3738288419234151  0.8836816009704751
  0.3847521104866202  0.3674046065323412  0.8725172935214299
  0.6448595493588272  0.3715210387957396  0.8564780160517148
  0.8553551498992695  0.3891172965404990  0.8725233409099638
  0.1378443173730866  0.6059960447142025  0.8695568265160721
  0.3910973767018356  0.6122733663619222  0.8861560598689547
  0.6034848969200739  0.6454878857337230  0.8835366747635536
  0.8798582323191853  0.6235483222558250  0.8773388970571621
  0.1243432650312872  0.8740953853468134  0.8950659980427943
  0.3755396334528302  0.8813404620395646  0.8738879580837765
  0.6130565916631320  0.8737560526018006  0.8765541540333363
  0.8761484449596235  0.8716882000914622  0.8850392218660813
