generated by phonopy
   1.0
    15.9923497217343744   -0.0000000000015236   -0.0000000000010772
     7.9961748610645493   13.8497811253384029    0.0000000000003944
     7.9961748610645493    4.6165937083140518   13.0576988688087816
Na Cl
  64   64
Direct
  0.9960281183067543  0.9754067795471604  0.0183005736965487
  0.2358224521796235  0.0099908677260847  0.0025106168442137
  0.4958012649601013  0.9930153611757736  0.0012221680368070
  0.7474940444508851  0.9942801808507258  0.9985233264026925
  0.0051767911283476  0.2397777547682492  0.0048330944868961
  0.2526741316213516  0.2440819441210426  0.0004018844446492
  0.5022156872808395  0.2479030492635721  0.0069071316458741
  0.7561039711004679  0.2442962466875797  0.0003115269895569
  0.0015667803903346  0.5059244816790750  0.9974071198993028
  0.2454164168467820  0.5051532881476589  0.0076559653581603
  0.4833315026092402  0.4986060440559443  0.0172861313305353
  0.7424757027106716  0.5003403063638617  0.0082272876614192
  0.0060481996237831  0.7537575595284023  0.9987939481095701
  0.2563733145509801  0.7618538902977199  0.9898702313502319
  0.4949662704824151  0.7619058239845803  0.9965689205227573
  0.7471419159078858  0.7561368107415530  0.9978539398044025
  0.9938515992666945  0.0160863269330404  0.2481162776987796
  0.2472931727149043  0.9990690367247058  0.2403020702959618
  0.5102064471314268  0.9772446771087540  0.2502518906754901
  0.7420092982293403  0.9905604247999319  0.2558504497102431
  0.9904019847458649  0.2409312377361975  0.2606156161358164
  0.2430772934552738  0.2567827265106161  0.2477713486018371
  0.5018127118453809  0.2412199794642281  0.2705749543872424
  0.7620287428664386  0.2547666451766736  0.2495516270940280
  0.0093654010738573  0.4648445329193303  0.2643904418788069
  0.2409968115028144  0.5026954278145273  0.2438687645366593
  0.5129867556211752  0.4862097301713036  0.2433144475002386
  0.7679573946946641  0.4912578577541074  0.2470778939848802
  0.9982786320685952  0.7533025420188165  0.2521776748256539
  0.2335862235768858  0.7562866068902466  0.2549227745457437
  0.5021322593623446  0.7674759623680021  0.2357395691291361
  0.7599177367061615  0.7477999942739401  0.2400024585262241
  0.9996978281854253  0.0135036003290292  0.4825957167852982
  0.2497144842431894  0.9956712513253090  0.4914416200272221
  0.4846084372575947  0.9993659589625692  0.5116701960212154
  0.7591085567123974  0.0100197277306656  0.4917213034021848
  0.0146234511536102  0.2332544917327426  0.5068444204806609
  0.2521954601156068  0.2548652452494831  0.5062022641058110
  0.4939563643586583  0.2583330106710428  0.5007380303923084
  0.7641874641450705  0.2423052196824838  0.4905560229556296
  0.9983818262784137  0.4904488875948094  0.5247879377796127
  0.2565581069863600  0.5029297049662822  0.5108661264314657
  0.4797413361436818  0.4937283854891707  0.5012530106598154
  0.7658846092919799  0.4904035702064261  0.5050929538848876
  0.9929309310378487  0.7515673694337275  0.4993586649881552
  0.2429066553825103  0.7694147867918893  0.4887623504549918
  0.4975406090430707  0.7449973001711042  0.4969067015647972
  0.7355318226468104  0.7531280276308663  0.5080250149679688
  0.9890360330434145  0.0132220197989132  0.7479851618877000
  0.2329744499681542  0.0263329274265685  0.7507492773453069
  0.4914389820944501  0.9932946065955216  0.7698578106227723
  0.7528231875413349  0.9908621222531840  0.7544230106769335
  0.0032120409122736  0.2492578851235028  0.7475921787756019
  0.2566081907669170  0.2581990283736419  0.7425748094018260
  0.4970211928617791  0.2423656596090777  0.7532224081976667
  0.7491927564788656  0.2474688397262323  0.7574087005732920
  0.0135173317227326  0.4971826979192718  0.7618674600835803
  0.2521111772238868  0.4940246179563623  0.7477453481405464
  0.4955933459551476  0.5098311588013881  0.7568894724839327
  0.7769116426003750  0.4758997673427885  0.7598364402071605
  0.9778701766610134  0.7538024341442171  0.7632765663745190
  0.2497340349964323  0.7544644205403646  0.7483662360921254
  0.4898074980726239  0.7304343633024862  0.7780969049137723
  0.7662239364528024  0.7395437531135416  0.7406782574047782
  0.1198044513472168  0.1067782729271059  0.1278559105475906
  0.3692213130764728  0.1292758498358097  0.1214598678229109
  0.6280301673223740  0.1471131328617042  0.1120147456062230
  0.8748918362239448  0.1266499102540596  0.1274634311230154
  0.1352350316498261  0.3678952900302829  0.1245389545598327
  0.3729612206262678  0.3670829258442782  0.1232021403739292
  0.6191688161299731  0.3795880571374549  0.1253041516618826
  0.8809789658272730  0.3656435101197188  0.1241215602553833
  0.1260094297701554  0.6317732648217897  0.1269017901476000
  0.3791483302263171  0.6157392562481168  0.1286304504398432
  0.6381843850755849  0.6020532389929332  0.1400923029849216
  0.8811108548734266  0.6140591941451060  0.1317544973508551
  0.1333011787544397  0.8691065642037283  0.1257508903293617
  0.3742324029463503  0.8683871323526248  0.1213471853205292
  0.6381709664822586  0.8627797682185593  0.1168535049016680
  0.8762324381488986  0.8709044480398798  0.1313703516653250
  0.1293643613393736  0.1404160688886685  0.3559662033382495
  0.3943171207116041  0.1109383892987512  0.3848969968279468
  0.6186660819063542  0.1346157663459102  0.3821630944909253
  0.8906775414843134  0.1147417278036145  0.3669504508420699
  0.1178378482737399  0.3902920575439886  0.3666653668413086
  0.3748914654340900  0.3902279553409393  0.3687152309932243
  0.6418461085056569  0.3702615777729797  0.3679977688400414
  0.8687390095433132  0.3949405773452993  0.3745263822353451
  0.0997900644487711  0.6352991529257642  0.3835881093764586
  0.3639889770173177  0.6381606249923901  0.3664844398859503
  0.6291873038650753  0.6319264443587201  0.3754510111673069
  0.8890800698790084  0.6227546700449312  0.3811453101845788
  0.1294146198719627  0.8600298279215360  0.3813131929026067
  0.3614596599848832  0.8801250002554297  0.3799766866565051
  0.6233207378947077  0.8714940721066227  0.3869785549218012
  0.8798918959592519  0.8888556279070041  0.3550975898511062
  0.1121606072890964  0.1340861753169180  0.6386375062015038
  0.3870044001942581  0.1247262152030206  0.6287401904142564
  0.6303906095940054  0.1365971875155146  0.6274586153510431
  0.8700112543929303  0.1212205263001117  0.6238475563816368
  0.1060852851645603  0.3962854930620630  0.6279042288881441
  0.3793188035686785  0.3809901843463130  0.6258745644461230
  0.6227119672142716  0.3962938230292111  0.6116679826359245
  0.8673223904702516  0.3654654722246926  0.6301854047243872
  0.1191783092564080  0.6467696141520765  0.6139035963622390
  0.3859916323860837  0.6182783352825678  0.6299794665665845
  0.6324889491983907  0.6292044679156424  0.6163327036981701
  0.8743423481489426  0.6356528641154308  0.6135985891020067
  0.1095681800411790  0.8639455201380453  0.6372913792526522
  0.3708416619459598  0.8718578057400168  0.6331498033739135
  0.6267989620715205  0.8808074101304991  0.6064928913094528
  0.8791446684823687  0.8634718204594501  0.6310037264885862
  0.1091941026191828  0.1515006925752128  0.8730353871370148
  0.3544387268024017  0.1321285446220581  0.8840122276811276
  0.6232174420673181  0.1042544946028593  0.8923066006437768
  0.8634944078593323  0.1205552115651318  0.8765621672439572
  0.1475795338915281  0.3807697924692511  0.8745379582399475
  0.3734426154641930  0.3990406155942269  0.8575074158402937
  0.6422828306332047  0.3786961723000127  0.8651075325083026
  0.8773610336851847  0.3717256483744930  0.8687011762426057
  0.1273509702914915  0.6214649974880199  0.8777417470812089
  0.3739815270331934  0.6163062657382811  0.8751536149950290
  0.6229320676644335  0.6344397936236448  0.8709837212073827
  0.8751460320684528  0.6310393216103085  0.8644680424962998
  0.1211181441170021  0.8792338464612601  0.8954853536402759
  0.3838341077278862  0.8778491965166945  0.8627774782983071
  0.6308862635620778  0.8634751468093844  0.8857762597899816
  0.8622782072167515  0.8803369976496099  0.8760335559595573
