generated by phonopy
   1.0
    15.9923497217343744   -0.0000000000015236   -0.0000000000010772
     7.9961748610645493   13.8497811253384029    0.0000000000003944
     7.9961748610645493    4.6165937083140518   13.0576988688087816
Na Cl
  64   64
Direct
  0.0043483504754070  0.9863702129603039  0.0021825141344276
  0.2560331157596550  0.9913318684714281  0.0033966706723813
  0.5212014108450792  0.9978432825851176  0.9922346903709663
  0.7421156734209778  0.9849275956234276  0.0152929061346736
  0.9948612872362410  0.2436388531790884  0.0196353493459187
  0.2562629930653300  0.2493075911293035  0.9864551392088786
  0.4967722973008177  0.2451734722323248  0.0119281479398584
  0.7515619622477219  0.2403143271330798  0.9989426881340078
  0.0042063965016900  0.4893890916496094  0.0022947042184199
  0.2383778011937705  0.4842942445139238  0.0134911329806384
  0.4894407687681394  0.5068532400221127  0.0054247856797120
  0.7630924977171043  0.4950177263537816  0.9942320483436529
  0.0170097247047686  0.7524999339573598  0.9946313477344012
  0.2467687790824297  0.7469748942184957  0.0029180999090764
  0.4890218704021020  0.7493541129783010  0.0116105318017752
  0.7584595650723368  0.7367296882948052  0.0088239401264307
  0.9966197605480254  0.0108991090319608  0.2491536175199304
  0.2619500678603595  0.9868348019251689  0.2399740774245761
  0.5038040510943536  0.9999228641018488  0.2542822802969347
  0.7758233869709334  0.9801540795769093  0.2378888356075155
  0.9949800193437640  0.2519439239341224  0.2522908826979465
  0.2484038242866969  0.2355227863096869  0.2548961063525640
  0.5033320804378746  0.2489719768830796  0.2666955704747189
  0.7481096236960461  0.2478653062959861  0.2503328094992434
  0.9896254074234102  0.4988073269102700  0.2420979840705665
  0.2377653804280885  0.5009032594460749  0.2573124798516306
  0.5032219919422434  0.5048911716255730  0.2323093232825642
  0.7709137754887379  0.5064487744864163  0.2379757968093205
  0.0097399000543543  0.7543432704317181  0.2359434794132931
  0.2638386440126751  0.7571291236956953  0.2458313530921779
  0.5081830014360832  0.7341781457250718  0.2327626483313047
  0.7322200799176346  0.7542471466631538  0.2535301605620405
  0.9996836706603065  0.0044028036076713  0.5004857575469422
  0.2430579764214656  0.0154360604749429  0.4844305681304215
  0.4964445376940016  0.9939578774279008  0.5063146096753319
  0.7758473269114997  0.0050148598813305  0.4764375323989439
  0.0044135256056711  0.2371265829420233  0.5082096142347527
  0.2457756580190856  0.2578967060489993  0.5030850933639979
  0.4954375726591920  0.2357960384896523  0.5145906558867955
  0.7421281926581196  0.2507926033398080  0.4975579591210248
  0.9977964753608946  0.4939162310476973  0.5179204369700093
  0.2590209051684978  0.5093120187038777  0.4926331761016619
  0.5009753923567090  0.4977764884337319  0.5118397499947082
  0.7502311175605159  0.5286976022471954  0.4801269386718612
  0.0008675179391237  0.7337689995302178  0.5147105674677336
  0.2538123299294386  0.7485904663770359  0.4837585990458836
  0.4950420619196161  0.7646408905441767  0.4923066142677268
  0.7656089797323929  0.7433479477530721  0.4934910744961673
  0.9980684508996603  0.0228682633822973  0.7360761356722834
  0.2375312451498696  0.0147672632664609  0.7544780183187576
  0.5225611917800498  0.9909796531710995  0.7445670075373174
  0.7498692929603626  0.0050242764310121  0.7444089697635539
  0.0104244717275881  0.2447241293416964  0.7766058026873415
  0.2441563306531161  0.2520177452616416  0.7428040561242119
  0.5031926058847417  0.2729661359911933  0.7298113549721401
  0.7511161477377293  0.2425244839253094  0.7560119943245908
  0.9796950503845111  0.5109734964756051  0.7663618260652391
  0.2610825742941080  0.4882838165786971  0.7467568694328307
  0.4874203753251519  0.4955975351848210  0.7601046912589863
  0.7595994773551258  0.4876263818013347  0.7534100381484347
  0.9930891921958063  0.7433105132689152  0.7633662664039889
  0.2526047668578579  0.7415343293292240  0.7669726074574530
  0.4810596683570103  0.7440276460663789  0.7722039931041617
  0.7473022592928704  0.7578142629563809  0.7472532111935362
  0.1189558449025713  0.1177944343681180  0.1263590545007112
  0.4003215975067295  0.1212160308526869  0.1105170542169097
  0.6320006948141783  0.1182236319201156  0.1329685837063499
  0.8857644223177302  0.1153885859015262  0.1300305086141914
  0.1378289215237948  0.3660124023620694  0.1219337457761945
  0.3664583544834992  0.3690423188336436  0.1271399864173140
  0.6387337162006577  0.3572432391466903  0.1258557332941803
  0.8731631950662929  0.3811305328835919  0.1343097836183543
  0.1232729662229444  0.6326865073336454  0.1048740284784744
  0.3700897021258180  0.6310939406009597  0.1342988785195461
  0.6258748910699372  0.6100535536195429  0.1416023909929418
  0.8762346122984743  0.6298028174035404  0.1287702904155565
  0.1329160856235161  0.8774945944023607  0.1261601875109308
  0.3598506591508904  0.8849014528259812  0.1312339951360421
  0.6291405603413459  0.8738392744434764  0.1050503108385897
  0.8564419977034036  0.8822736306024711  0.1384916031460524
  0.1329037843285311  0.1214707719300529  0.3700899244851821
  0.3680909022447305  0.1280372927993883  0.3801189710359080
  0.6252930382592187  0.1173697554547696  0.3832767434713393
  0.8634225222522285  0.1169029871407941  0.3818604003988886
  0.1331736374835352  0.3694465994341604  0.3698508316773502
  0.3843426379114119  0.3749479083650863  0.3769606796496960
  0.6075592574054313  0.4002348047253083  0.3537002171543380
  0.8774350983005289  0.3919023874052412  0.3606683790099509
  0.1399977441672991  0.6177795350558605  0.3702377906524194
  0.3656007972136729  0.6175811675984135  0.3886046927637562
  0.6350482019518597  0.6181881012413141  0.3648871025286313
  0.8781814271864593  0.6191894002958293  0.3825329309430998
  0.1163440386303442  0.8743973330003325  0.3606453511752032
  0.3665965742768746  0.8692252522775699  0.3973165246857289
  0.6176358105579525  0.8700828129310701  0.3773501686168163
  0.8704218413709267  0.8660609301132621  0.3833785097484261
  0.1258874389868730  0.1354507989474647  0.6255497171254376
  0.3764844242641135  0.1168412653754398  0.6415397802514079
  0.6168101635335959  0.1351891828772668  0.6326848617017622
  0.8661050423672512  0.1344977575030762  0.6366505027091469
  0.1289914406589213  0.3796417278445464  0.6009691768922286
  0.3704358259965639  0.3913273482953998  0.6210397256683594
  0.6248554691061166  0.3693547627989007  0.6203469591818511
  0.8691941567751700  0.3720045997412357  0.6385493547508436
  0.1279131060576206  0.6312704490710047  0.6274128352760819
  0.3677859820138715  0.6310933343304845  0.6320936789038295
  0.6424866946730430  0.6076676136035478  0.6323254305123517
  0.8834058364072888  0.6178196600412115  0.6209828904296598
  0.1390793272055160  0.8662742343060528  0.6342524827789522
  0.3825324359245819  0.8801946370322297  0.6075567478323803
  0.6230058639749770  0.8773390700873770  0.6136320085053754
  0.9000914064648673  0.8841426600558824  0.6163451716405138
  0.1198068020120640  0.1232465725928741  0.8766688912270550
  0.3860570471194327  0.1274109709660445  0.8566894832178610
  0.6063477682993252  0.1336352750619054  0.8776742897558895
  0.8799263398547039  0.1236799199679304  0.8737724584403791
  0.1184657181656706  0.3637442453905819  0.8923881150020693
  0.3814190295581376  0.3684875554872561  0.8794323654851671
  0.6365253910728318  0.3597419788946487  0.8697205193983665
  0.8745513643760379  0.3766483716794644  0.8616592218109410
  0.1128199893900817  0.6431481863924003  0.8545765301707470
  0.3690469492146100  0.6266694119693182  0.8701319945898379
  0.6439486328007499  0.6129851834806238  0.8721137104330424
  0.8855336409869602  0.6101009291437716  0.8823639332939781
  0.1317949544723205  0.8687796911442347  0.8778982904821276
  0.3988338254157776  0.8677511446551646  0.8648808157779697
  0.6256511057894526  0.8856241498269510  0.8560657129354607
  0.8690559408035607  0.8776424897062384  0.8821069502356199
