generated by phonopy
   1.0
    15.9923497217343744   -0.0000000000015236   -0.0000000000010772
     7.9961748610645493   13.8497811253384029    0.0000000000003944
     7.9961748610645493    4.6165937083140518   13.0576988688087816
Na Cl
  64   64
Direct
  0.9877675348379902  0.0105760206321076  0.9976235279390803
  0.2429503973513904  0.0023963363528740  0.9973218987089451
  0.5146943830615338  0.9888052932043542  0.0001367746195276
  0.7413431528206239  0.0067810009474322  0.0005499490342428
  0.0002517373449211  0.2690106742405860  0.9829478672578433
  0.2430497620060665  0.2615047997192235  0.0039526655260401
  0.5045651726469765  0.2480808451436862  0.0016981720050619
  0.7545653144934737  0.2461502711959468  0.9950449917350288
  0.9955530603173853  0.5143030935488269  0.9849970695264064
  0.2633263995209459  0.4886206017009105  0.9996425245760390
  0.5102516819464749  0.5079616825797242  0.9864514155444365
  0.7443338144065997  0.5180386993540175  0.9988495715596768
  0.0058795229114566  0.7489986651041672  0.9897025489089767
  0.2442576236722758  0.7509697635555767  0.0038725625198770
  0.5160226394117960  0.7482122119610655  0.0136677976354493
  0.7385171564631647  0.7499940724211938  0.0131302148360395
  0.9900529368509140  0.0067725601160515  0.2679939105867568
  0.2427171642792203  0.0004723646385823  0.2540012939817701
  0.4980437599766722  0.0102054376939708  0.2500609189894401
  0.7573288631377610  0.9970286101342171  0.2468442585764585
  0.0005410490185345  0.2357701875411454  0.2459232544543791
  0.2464502764061144  0.2451926463762623  0.2660821575255949
  0.4985809909144084  0.2627819336823909  0.2497577749968163
  0.7305940856305709  0.2572159165889564  0.2697968237778052
  0.0091355659559671  0.4898644018269586  0.2674346351310894
  0.2534098304722891  0.5008278293230007  0.2537694855996365
  0.5113482374941605  0.4963288088080803  0.2480321287879837
  0.7615891522567907  0.5221702625175519  0.2462175703014206
  0.9950350219660044  0.7617162016209492  0.2344073850954403
  0.2427606270129196  0.7556090787682593  0.2524548138011883
  0.4865536169984436  0.7450309575757957  0.2605678121813304
  0.7426463330040003  0.7510827752542504  0.2567984680877904
  0.0091909612021507  0.9861846060632611  0.5037110393026227
  0.2510976331078728  0.9950363709175666  0.5023296957373955
  0.4936758375678737  0.0037643346133853  0.5064439936058561
  0.7331411819020509  0.9979194437030061  0.5230372380555836
  0.0078287408768838  0.2466408894082470  0.4977625466944395
  0.2530903625609079  0.2471688015753658  0.4972658942479689
  0.4926184048609126  0.2619782721909829  0.5063532362747921
  0.7612865577912501  0.2465386077700928  0.4935423088322992
  0.0084974376839463  0.4958471538420603  0.4980912686360446
  0.2569773314206555  0.4806136788365258  0.5075738581577978
  0.5074467456139993  0.5226136528694233  0.4977992074718159
  0.7441416381944311  0.5019868668001543  0.4958900481660369
  0.0174967716423052  0.7347459237664256  0.4946758844957220
  0.2593968945237814  0.7769653628722311  0.4901998994712056
  0.5105311629003664  0.7438340120719887  0.4947433127209948
  0.7640698132322974  0.7403266162934934  0.4942295428869314
  0.0062107719003333  0.9909649365695240  0.7573227179317867
  0.2731993408689766  0.9838785765460248  0.7599556568105784
  0.4826802613692464  0.0122846282190999  0.7444948656755156
  0.7482583961241864  0.0023307093522538  0.7574310220187380
  0.9952447819555500  0.2391237503001657  0.7545134964075869
  0.2598330933899421  0.2393424418000830  0.7461974961211310
  0.4987726211174937  0.2484268461035621  0.7474802580096627
  0.7759817142197351  0.2252712052852452  0.7346751682642145
  0.0024172193717647  0.5137469446144616  0.7345036765701494
  0.2528121991598919  0.4982984705889619  0.7694343581955798
  0.5145949015595611  0.4839822995409443  0.7662784572923865
  0.7540788554487129  0.5114025847714716  0.7554051836618998
  0.0114430995953392  0.7542499828565392  0.7317566210132844
  0.2359016104658656  0.7649535826660694  0.7447732606602988
  0.4984538932117116  0.7379842418161412  0.7624861361465272
  0.7432097632913499  0.7581826284411728  0.7521020430982954
  0.1441196031949681  0.1257057666777670  0.1196557621006526
  0.3646535122295171  0.1350857406825599  0.1206165770798595
  0.6115790299674160  0.1273427822579322  0.1210059932968712
  0.8649288436926793  0.1336140351365287  0.1168704548213593
  0.1172967610708398  0.3786211472035811  0.1231051767452646
  0.3867027097821140  0.3692696703808626  0.1227811751446076
  0.6029581166132881  0.3870163354039634  0.1371069089390051
  0.8816585094251402  0.3615011788070813  0.1365544577289301
  0.1318249534408423  0.6202475178321224  0.1437967579746657
  0.3796943962853512  0.6322702022861492  0.1143681083808012
  0.6326234069267023  0.6211134092269964  0.1195916221803401
  0.8727001697529166  0.6345967952008670  0.1389381632904678
  0.1073624658577096  0.8621970173624151  0.1449554133112234
  0.3856132269289604  0.8632005530046953  0.1199957333489376
  0.6283191539927006  0.8835746354487161  0.1046701318884572
  0.8854377447593957  0.8551044360116251  0.1354015425186797
  0.1289564813136657  0.1109510057222317  0.3730620216654424
  0.3974404734516088  0.1080621464680660  0.3650843289321148
  0.6182639970342213  0.1397221683571640  0.3737968554036615
  0.8686703074128254  0.1119119305311763  0.3900071790800035
  0.1259592490798525  0.3788205106497931  0.3826170882700863
  0.3653120723295676  0.3795534215714413  0.3718117087508710
  0.6273129305174051  0.3767743939828323  0.3734807310707724
  0.8807267274131853  0.3784753474581464  0.3592999945216324
  0.1232730774115985  0.6096553781042378  0.3729425117792282
  0.3683450819260544  0.6241773047364605  0.3862869701253099
  0.6191703438848433  0.6366779521817146  0.3890269617891636
  0.8617008829873266  0.6298947275738114  0.3897393114640455
  0.1209175183845378  0.8857974817425683  0.3666515226380662
  0.3839159386832874  0.8847054455098777  0.3706949392186920
  0.6204927743118853  0.8731697570368997  0.3680924809241294
  0.8693583847528827  0.8767849954636942  0.3684621148171732
  0.1291317979224711  0.1157851806220770  0.6243532355476109
  0.3646306509339267  0.1271778053762671  0.6233219729282760
  0.6183368469832037  0.1370255565779804  0.6216412101671308
  0.8671861317563472  0.1366732723345947  0.6248056153085253
  0.1265829301708833  0.3699476711704476  0.6369823733040337
  0.3825719305866953  0.3793445662885783  0.6176536214501596
  0.6118262700566272  0.3733968998149650  0.6225179277312084
  0.8761788942417645  0.3594078858135250  0.6410507557252714
  0.1360667296173798  0.6260794732636350  0.6342787042008707
  0.3836171187505761  0.6252250939123656  0.6233009425833090
  0.6293371072293499  0.6266142854012426  0.6194951355641604
  0.8739437160989401  0.6313086974958001  0.6252495664877901
  0.1350761244009152  0.8665662210846674  0.6206993130694101
  0.3740199219272399  0.8744886662784447  0.6319977839885438
  0.6257552074791242  0.8771000375691004  0.6246812122998556
  0.8720195773424617  0.8703534146725594  0.6319522304374539
  0.1304390721575223  0.1126583109395869  0.8866582216384431
  0.3923364891622633  0.1185074159560660  0.8694269216377025
  0.6215385838722575  0.1268998874344181  0.8797101465160816
  0.8800192055224577  0.1227846642971079  0.8832082425385650
  0.1282509564474736  0.3778681345712175  0.8708532306193063
  0.3799543238392463  0.3676748248821489  0.8638247991492241
  0.6392794494518478  0.3769102336629858  0.8698412537687806
  0.8962586200056968  0.3600152103181460  0.8819422348576678
  0.1323017278424144  0.6175428515257648  0.8610010621237106
  0.3844036448873855  0.6313251922365494  0.8651881213710810
  0.6148620179172553  0.6273735370471031  0.8840945071994001
  0.8831698535376640  0.6272065567898060  0.8630267390038345
  0.1226824595062142  0.8738447246935797  0.8938473418392274
  0.3707601640637356  0.8723812485887085  0.8797996425599480
  0.6331115010181909  0.8774321498731986  0.8494263633171801
  0.8672480017791725  0.8755771169083005  0.8790103674895789
