generated by phonopy
   1.0
    15.9923497217343744   -0.0000000000015236   -0.0000000000010772
     7.9961748610645493   13.8497811253384029    0.0000000000003944
     7.9961748610645493    4.6165937083140518   13.0576988688087816
Na Cl
  64   64
Direct
  0.0045294649305904  0.0076066396665542  0.9943349814754407
  0.2502728429831215  0.9863894637384316  0.9968376020840611
  0.4891540447216640  0.0013156821443096  0.0011332680445745
  0.7511785959030133  0.9968194903550363  0.0027567957980339
  0.9865957802702641  0.2518369367964530  0.0170739965751459
  0.2527724179402412  0.2376999427284468  0.0074413274284065
  0.4898896018423762  0.2516204425475206  0.0112791895723928
  0.7440642013316360  0.2514807681428401  0.9946746166467477
  0.9976504556200426  0.4959266373228280  0.9937831875840014
  0.2508163543308045  0.4796817725126437  0.0073203511282153
  0.4871353633114150  0.4956201621469864  0.0292965616416110
  0.7543243367945341  0.5067315503916834  0.9849691540254615
  0.9911820621942029  0.7501049630556080  0.9876734233883535
  0.2460968784991392  0.7491720395621487  0.0075397791534325
  0.4952533731042845  0.7763654437161491  0.9857148546330194
  0.7474535997926304  0.7550174524589804  0.9913300521706387
  0.9897518730429283  0.0077224125236878  0.2534536186024273
  0.2600710967876461  0.0116482987520552  0.2266421570606469
  0.4979293586840058  0.0005776947227798  0.2557951345208945
  0.7485761866552885  0.0012228661571285  0.2609981733013022
  0.9866488249825881  0.2468797112955349  0.2669289893445763
  0.2482641873912275  0.2514280664816423  0.2360555978883530
  0.4828185654912289  0.2558148264079511  0.2650852105624515
  0.7564743166085462  0.2522656899389119  0.2463168995924777
  0.9842226316574718  0.5051008990866016  0.2597517305499238
  0.2485055046378268  0.4744922583822373  0.2650465714100326
  0.4867225022502098  0.5093580177630453  0.2451526025562271
  0.7493762389950164  0.5063075235525457  0.2520873674040927
  0.0043029570301725  0.7547919489269650  0.2424707185447606
  0.2561579082323110  0.7475368254532974  0.2508594821358653
  0.5007540756319563  0.7448400018224455  0.2401609453536035
  0.7511147528147164  0.7566220989194499  0.2393670607792202
  0.0033937641207856  0.9929943828730710  0.4966285256862276
  0.2624308498733471  0.9944795223530895  0.5034470916337573
  0.4903131916187148  0.0137325506260358  0.4970926166100338
  0.7671474278515795  0.9960488218851971  0.4968907110906703
  0.0177565741410217  0.2480250551641233  0.5046649144919494
  0.2550747299051511  0.2443172426535624  0.5022279567059381
  0.4975704431972557  0.2500799117026384  0.4937879331735149
  0.7531913340442381  0.2537461896118834  0.4900807924208939
  0.9894860836579195  0.4986744493427795  0.5066769274749827
  0.2601363913294921  0.5097472650899498  0.4828399163655428
  0.4904608302107085  0.5191345605018282  0.4901013244989326
  0.7522317222598094  0.4900449728621166  0.5050233745387200
  0.9886267993174697  0.7492342630308674  0.5013970009579689
  0.2704742394957980  0.7427111249292162  0.4975932974155268
  0.4903473259817971  0.7615941819622015  0.5141179764559094
  0.7692119256531861  0.7418895995462327  0.4882215483919062
  0.0158985732468267  0.0023316775395856  0.7384709836976965
  0.2451982226912546  0.9838499485637915  0.7690298459028480
  0.4990192728749326  0.0156612505856348  0.7551787756202664
  0.7307609366847315  0.0076557376513273  0.7863709146927498
  0.9866902930415029  0.2618767704431723  0.7338268129723410
  0.2511676739734104  0.2486270292468928  0.7623754646854143
  0.4820986197608458  0.2616141680212515  0.7588407907636189
  0.7343081942416032  0.2567821399766746  0.7525205430974269
  0.0173566726797453  0.4978175161586727  0.7385422628287812
  0.2592428928203502  0.5103043922431520  0.7420200033705477
  0.5182530501031617  0.5051959530587108  0.7360415522671606
  0.7505481093773129  0.5065238071593519  0.7482533430423665
  0.0168172810890090  0.7484675646926716  0.7342451666153729
  0.2446455038694615  0.7367500814700043  0.7445893084415538
  0.5068395140948214  0.7408018867337351  0.7634735611188310
  0.7517394262506555  0.7436524600301901  0.7551877795162064
  0.1123405607725020  0.1304036798065238  0.1470108235891540
  0.3717093279752355  0.1373684879343343  0.1209774572802836
  0.6228980311373221  0.1297168789791813  0.1230706824946864
  0.8690955333382091  0.1366341384907997  0.1287292639183557
  0.1279785207758780  0.3651055836137754  0.1211580341792324
  0.3732526939795268  0.3683451002321684  0.1274983768522166
  0.6121080921569469  0.3710541440143541  0.1335090428453899
  0.8568112204224404  0.3903192999493951  0.1382957062151643
  0.1199205115032900  0.6461648379186767  0.1177155600377363
  0.3837725030049624  0.6146280933124944  0.1343977644628769
  0.6265240432850290  0.6337564484545146  0.1227225961856269
  0.8705347337547636  0.6329525364829096  0.1211592161545442
  0.1236393772232216  0.8814706963080491  0.1306753667284090
  0.3713988461994393  0.8726954206641488  0.1337730470025767
  0.6361137391588665  0.8664451561112999  0.1201884652221084
  0.8632089895979301  0.8828448389642015  0.1315089711509606
  0.1321058665892114  0.1312267784462273  0.3753596665930780
  0.3837664588667297  0.1209438405087623  0.3662429700039453
  0.6124551907600660  0.1405887795160310  0.3743466306222012
  0.8817381930084673  0.1222597531699013  0.3789705771736572
  0.1300872203044345  0.3546944161457299  0.3851922401675635
  0.3696147682810471  0.3499230450499412  0.3866083715514579
  0.6203757195589659  0.3646562778719005  0.3851800443962188
  0.8802867547612692  0.3829751297634370  0.3715743593780239
  0.1124580270981279  0.6264010511332263  0.3750949002893360
  0.3705048996845654  0.6384125283704756  0.3782584588726520
  0.6294802465576924  0.6257410881315452  0.3652574924522272
  0.8784037772284973  0.6151736329566825  0.3821961087760369
  0.1139357684220961  0.8598063633748421  0.3810614181815198
  0.3746579800474334  0.8801798299737748  0.3751813130480361
  0.6238792716020463  0.8700531686389079  0.3746788905014993
  0.8773754533316668  0.8619368095821975  0.3787996880216806
  0.1162949388146315  0.1215689326564148  0.6256464412849897
  0.3712046887608793  0.1388692354181988  0.6222286376329268
  0.6332715975180094  0.1340456410161749  0.6180750323095662
  0.8769170321457376  0.1191883897844999  0.6392475070278334
  0.1243237427786923  0.3671494372437321  0.6293201474423086
  0.3683230661821134  0.3748151487097989  0.6265898572195633
  0.6096647534767544  0.3901304451850476  0.6157370092522506
  0.8745070942296178  0.3864922400017299  0.6146418005702522
  0.1150020705765484  0.6343770686190542  0.6187223890334363
  0.3728510542127824  0.6331801614138867  0.6139569977957596
  0.6345457934706443  0.6296670437275007  0.6275326763892668
  0.8846453083966882  0.6277250900578302  0.6190274202584134
  0.1189495261595650  0.8822116976901011  0.6210549181736368
  0.3818047498715213  0.8747661601823822  0.6249916891859322
  0.6141961796755431  0.8918496218309300  0.6269345863250269
  0.8838593512476728  0.8786806318272491  0.6081144587327478
  0.1371511018885598  0.1042036627587404  0.8893727673109607
  0.3788057949025486  0.1198750105234469  0.8742376595879212
  0.6236749126124385  0.1145549022965662  0.8779130113955163
  0.8691782461110852  0.1151092567397936  0.8675046303665188
  0.1295959583693737  0.3793103323132076  0.8840249124473292
  0.3723690734293934  0.3536517827920421  0.8963703190697411
  0.6169110029662119  0.3716307456107151  0.8730011027205778
  0.8912972606387261  0.3864882170479335  0.8659528973427182
  0.1281823070226649  0.6266456504785063  0.8627895485400491
  0.3844348095180792  0.6219097414515448  0.8718314805189423
  0.6019787099720511  0.6443970604140347  0.8731670845210300
  0.8880399770037307  0.6106511858791622  0.8661418952808435
  0.1074802084372418  0.8777238414886471  0.8743217999398807
  0.3815467636854675  0.8799169425666958  0.8726890322805702
  0.6263037504582043  0.8655389560084150  0.8597522685452565
  0.8576384465560821  0.8903601242342721  0.8674406952876910
