generated by phonopy
   1.0
    15.9923497217343744   -0.0000000000015236   -0.0000000000010772
     7.9961748610645493   13.8497811253384029    0.0000000000003944
     7.9961748610645493    4.6165937083140518   13.0576988688087816
Na Cl
  64   64
Direct
  0.9886883516438519  0.0136077375228477  0.0037465550503285
  0.2351010196800269  0.0111169259348579  0.0006664447122313
  0.4873358385696953  0.0180017594979339  0.9973159386205390
  0.7539658922967188  0.9925644581064121  0.0036546867822963
  0.9991558971753969  0.2280284517931737  0.0173125267821307
  0.2479250911698689  0.2577492682750789  0.0016626351455562
  0.4868699227465585  0.2410263391653167  0.0199283103291508
  0.7620227913813008  0.2370596723563105  0.9894217232146444
  0.9900654925678920  0.4904959983460292  0.0235644897688147
  0.2474275707793200  0.4767819448457647  0.0182009305814889
  0.5144597870913572  0.4886541298786534  0.9696364184895130
  0.7474886548584028  0.4939121644587003  0.0035063016642761
  0.0098408063918312  0.7312271243195176  0.0125815774434832
  0.2542569561645260  0.7402730813629419  0.9955181715725513
  0.4903570526207647  0.7538400263681939  0.0039373258087760
  0.7608409238417897  0.7385263467245980  0.9920636106422310
  0.9942206144546543  0.9980634451655028  0.2515726021773502
  0.2450513833175158  0.0169124997638259  0.2391466753054977
  0.5170076185989798  0.9927704956616630  0.2424685988062694
  0.7433276957359116  0.9992902742751494  0.2471094158942068
  0.9878074576181481  0.2584426561939753  0.2530050596844088
  0.2611553426880184  0.2535557764086289  0.2366734055146970
  0.4698638328492546  0.2623642468604649  0.2711456188012702
  0.7494543251470152  0.2418213416081159  0.2482354382418204
  0.9965380976374104  0.4847872590306226  0.2462951484508331
  0.2462948559078386  0.5040923080764634  0.2574768454584701
  0.5054912461431893  0.4970034648604982  0.2580189022469824
  0.7647443274667420  0.5015200189906862  0.2385587448654156
  0.9768555103166335  0.7856019797772800  0.2402509306776167
  0.2391278258826158  0.7648534089284358  0.2567044435635608
  0.5047258460755271  0.7597602859931728  0.2531052522767697
  0.7543695166920797  0.7497290802639436  0.2488606789323208
  0.0112939094027570  0.0058223831920080  0.4994326368361716
  0.2556509021828638  0.9882846011648743  0.5151179543883325
  0.5094271483428527  0.9837119335482879  0.4931836684793733
  0.7354794880201715  0.0000805331154896  0.5194204266922038
  0.9957521146366123  0.2510931924656150  0.5035698259189526
  0.2442197947155803  0.2511762273366281  0.5184790471187921
  0.4905604966406111  0.2512931486358971  0.4940588386058197
  0.7534824777202678  0.2521954250956087  0.4886448604541802
  0.0059023965196166  0.4786989327853791  0.5105735979547686
  0.2448436067148513  0.4985516564920883  0.5094002202783458
  0.5016786743378253  0.5069169723559688  0.4934152129640494
  0.7630183804726948  0.5115723882182710  0.4865321812898354
  0.9927479372269339  0.7681252556106326  0.4866579961855612
  0.2387979405766241  0.7586998184839999  0.4929539367562523
  0.4817692144606720  0.7501281052914630  0.5035443565334613
  0.7415797887232500  0.7464775753319148  0.5023804423624969
  0.0218897064380719  0.9856677129911294  0.7490342666854299
  0.2496286023981427  0.0005347619027832  0.7432110014088504
  0.5216722139263181  0.0046094158779927  0.7299486934852579
  0.7404671009537511  0.0137616402673303  0.7491733879328500
  0.9975866192997715  0.2545996966810629  0.7519460791306050
  0.2676877050160990  0.2461270892481047  0.7533501371345194
  0.5111372841769904  0.2475372168330428  0.7398165993987178
  0.7617704937828543  0.2470347199464440  0.7595288567371559
  0.0248782666438225  0.4905478833130154  0.7496305414204582
  0.2712079959262320  0.4981604239821664  0.7451127731549541
  0.4997886011472580  0.4924234324285656  0.7665342603724904
  0.7230768609436462  0.5099306748719179  0.7695736892058169
  0.0029277991707431  0.7625875903248329  0.7501291912497191
  0.2507148729407959  0.7624426984847589  0.7417186473099409
  0.5083167830504129  0.7394865656848522  0.7562976123967441
  0.7404287204275575  0.7390780544509735  0.7596428073738032
  0.1300019611304657  0.1309272998646268  0.1317753643646942
  0.3649149605383056  0.1343463533632962  0.1256393782478610
  0.6330710648177033  0.1230779860330360  0.1216583709194974
  0.8852900319135318  0.1362821537753985  0.1093002056395982
  0.1150767708589783  0.3870122760741680  0.1204624412796331
  0.3630865684754493  0.3853800009935573  0.1346921005658292
  0.6177076080552341  0.3778481256988794  0.1082655393136571
  0.8856953497816691  0.3700131083458860  0.1318323154329828
  0.1241980412381299  0.6219582850037204  0.1262627487612757
  0.3833915929009958  0.6081002641432587  0.1317314843514247
  0.6133790381932570  0.6261950032769742  0.1337587845575255
  0.8691712125137888  0.6330348001247326  0.1197943895745347
  0.1319067090935974  0.8734516847619094  0.1245780021470610
  0.3737801580088427  0.8994047601646533  0.1117825900206231
  0.6245831445465257  0.8687579602379906  0.1176325821184123
  0.8844148005354415  0.8790315326583887  0.1061770942094100
  0.1269864309301914  0.1211285449442832  0.3894405487308835
  0.3705930766948284  0.1298929622520790  0.3760561053553481
  0.6100599371987565  0.1356657222128452  0.3826669697394698
  0.8702086014979091  0.1200029734190204  0.3821780074075460
  0.1401576924167597  0.3673998104532797  0.3728256900808953
  0.3875825789105365  0.3758738278113840  0.3615857219470952
  0.6147626406807736  0.3796175458099155  0.3627529190024238
  0.8758493975651794  0.3677803112547826  0.3741072612926303
  0.1368966256615653  0.6162285857049959  0.3675517245081701
  0.3782540524845368  0.6260756533269493  0.3662520903000595
  0.6296799581508927  0.6206106421076907  0.3900501935096156
  0.8760337252147781  0.6406509703349410  0.3679196146809341
  0.1178419927374159  0.8902744247528076  0.3768691923925291
  0.3842542124483733  0.8784781377929726  0.3621016451844078
  0.6282955055827897  0.8761203374509222  0.3740729885732682
  0.8801752461027418  0.8842436505160266  0.3719151833717134
  0.1304568912822191  0.1273450274461182  0.6153837193132823
  0.3868496794953923  0.1114216672433078  0.6249721168220361
  0.6242815858081014  0.1140559049740956  0.6377053370772849
  0.8807383366516560  0.1065375691236661  0.6388414164856621
  0.1242129091341583  0.3686844426725714  0.6267337238425301
  0.3697478113186344  0.3831075494980521  0.6297019939390738
  0.6320270599980453  0.3828536178463774  0.6168612415192232
  0.8723648419308483  0.3751314778486814  0.6272320796400997
  0.1187922958522546  0.6418339019727169  0.6203625659348112
  0.3771337433116076  0.6191838738663878  0.6151859428619112
  0.6289899490308206  0.6314027967420980  0.6229331167444634
  0.8723468181503361  0.6263382814564602  0.6117278716674696
  0.1139886034080199  0.8979936551137571  0.6191101516832466
  0.3650300133629638  0.8856967700630251  0.6166953433100703
  0.6209414245229622  0.8695654133389044  0.6228594454185927
  0.8798035710318348  0.8775094406517665  0.6283303274222740
  0.1276064052866906  0.1268805805326171  0.8735861700872248
  0.3692277336360775  0.1242026104598738  0.8780559876141971
  0.6334029557173206  0.1156784709713944  0.8718022483836567
  0.8634515968563238  0.1305137477025300  0.8890060337222903
  0.1365368840862314  0.3668727515635726  0.8592470335828956
  0.3824552588798405  0.3632137888891460  0.8662385285384201
  0.6202270513964849  0.3795602328367916  0.8675734120291284
  0.8675430291237478  0.3889182373925169  0.8725566193778265
  0.1266162751538484  0.6268422210474069  0.8612439071254389
  0.3693183243310786  0.6340138962646378  0.8720183047979032
  0.6266814599907409  0.6129544962334152  0.8920847829914235
  0.8789004999559089  0.6239798006382279  0.8670532515971873
  0.1335981729173107  0.8824874563987530  0.8561946215652689
  0.3813447166280634  0.8637310087932780  0.8844093810862876
  0.6195305753219829  0.8791618558355943  0.8872231710320844
  0.8900125785582389  0.8709471111652342  0.8829509741856614
