generated by phonopy
   1.0
    15.9923497217343744   -0.0000000000015236   -0.0000000000010772
     7.9961748610645493   13.8497811253384029    0.0000000000003944
     7.9961748610645493    4.6165937083140518   13.0576988688087816
Na Cl
  64   64
Direct
  0.0077768971584895  0.0093072845375792  0.9850835571392639
  0.2622836977177598  0.0048900513235270  0.9699813030805056
  0.5118190029969358  0.0052371693028275  0.9891630797420172
  0.7528083939693272  0.9947639287476536  0.9743602206291403
  0.9880678986246443  0.2554644934904136  0.0050168909348175
  0.2632994091366402  0.2576742005186787  0.9934481553549344
  0.5197707748862376  0.2420493080622794  0.9859403662791850
  0.7546487248149610  0.2554898707431048  0.9963026225974052
  0.0045834833686366  0.5178363731885666  0.0016146908261533
  0.2510867881934795  0.5021238127009888  0.9945751435672391
  0.4867719120396317  0.4971513512592254  0.0107811873974153
  0.7540177259644453  0.5038901252295557  0.9928962747339519
  0.9875730832564266  0.7428129999333949  0.0067114931918458
  0.2581691377944403  0.7433622348982993  0.9937465546228436
  0.4869497822873955  0.7564885401406888  0.0100780618658630
  0.7335460045978339  0.7411386700297087  0.0065875652342592
  0.0122606231522631  0.9961084221732962  0.2521179903503017
  0.2509883404224774  0.9941529229023455  0.2465104145991831
  0.4974057164397245  0.0056580130157632  0.2522096231076848
  0.7388221476382700  0.0031002945544088  0.2562661352786573
  0.0020791395594071  0.2565076550702438  0.2374536997979842
  0.2484631751524344  0.2594021001860599  0.2480435027683800
  0.4834378510587333  0.2591277936568875  0.2551835343333282
  0.7557445550894273  0.2474241679624909  0.2450960286473338
  0.9968266132491557  0.4922981153055765  0.2622421396960015
  0.2560827755347662  0.4979473732235785  0.2491383420652644
  0.4985013656181997  0.5003117245687373  0.2478024220281369
  0.7424157565374594  0.5092777281112832  0.2492543593756185
  0.9788568176155574  0.7649714273576044  0.2462347467449832
  0.2497205613338750  0.7424766668416032  0.2533694062135937
  0.4964084939395009  0.7379942871621390  0.2634858732903495
  0.7578547327985429  0.7531542410432522  0.2302917567558549
  0.0165826816459979  0.9833849735260368  0.4993488563476219
  0.2305359190985663  0.0118803909628025  0.5251276825040248
  0.4966668578090517  0.9990510748235057  0.5024137273921336
  0.7511997142284944  0.9821467887635250  0.5192839531921597
  0.0175969121020056  0.2598458774213139  0.4896530582931233
  0.2371924453486011  0.2707976804804902  0.4931143470394754
  0.5166588441225622  0.2281445753130839  0.4952001811280230
  0.7525374964147014  0.2537182820122595  0.5037455656488370
  0.0090683579905364  0.4949305297202746  0.4964237198624855
  0.2491907657599448  0.4924559921647126  0.4996857323283673
  0.5104961698779303  0.5124672404769028  0.4862711048253022
  0.7605275092757631  0.4830589466007992  0.5000734756628467
  0.9895645708643410  0.7666100539299689  0.4758647431111150
  0.2560865568924180  0.7517364510030240  0.4979330213134374
  0.5123001010450506  0.7446317510752138  0.4886126769467952
  0.7314778627950315  0.7418499884125546  0.5100665245543363
  0.0173298841777672  0.0030320868708379  0.7506879743939855
  0.2432812591019393  0.9918644320073217  0.7547454671223188
  0.5040572744337026  0.9788777100827454  0.7535726238025875
  0.7545468112339162  0.0112107065840615  0.7561324251416055
  0.9926058981559472  0.2468539881151877  0.7483784942003275
  0.2522089781223413  0.2542491590256875  0.7409449792778283
  0.5031327549618098  0.2581881301937387  0.7452837259276132
  0.7311287857606472  0.2507434290616544  0.7482582140188326
  0.9981559946960967  0.4981321235152392  0.7548855156483477
  0.2431373727935110  0.5034931954888827  0.7545300309384179
  0.4858359468069341  0.5088640151709380  0.7481201112016224
  0.7419298434089084  0.4883709328149002  0.7545558766274175
  0.0184263858333875  0.7463999218428489  0.7329824244158720
  0.2554786045850615  0.7350086431134708  0.7550364769761381
  0.5028645171636758  0.7460853314791045  0.7513147367029571
  0.7618356224393454  0.7477863856132053  0.7517814036938882
  0.1287723809381821  0.1269352405369840  0.1177268577018437
  0.3689117159927336  0.1193858118083559  0.1162494222254448
  0.6046259754252554  0.1219947645811841  0.1324292297983852
  0.8782937373618388  0.1272836518390201  0.1129575436641294
  0.1304299135097382  0.3739719902477148  0.1180732343833240
  0.3900888502669761  0.3568429904466867  0.1239882226416879
  0.6516907907135311  0.3692508389720852  0.1223580466693750
  0.8606535828261161  0.3802333585773264  0.1329945135572387
  0.1206649603624010  0.6317949201259473  0.1249637525631586
  0.3720932015816597  0.6298659853034649  0.1258931982455630
  0.6115053834444000  0.6342791923723626  0.1161626316297773
  0.8808759944736807  0.6369989495960889  0.1248096581284135
  0.1201225516417413  0.8897481661085832  0.1234591324190630
  0.3784022006035533  0.8613560054818283  0.1307231313122479
  0.6115664772431603  0.8892308531182528  0.1193927359331745
  0.8750112580937400  0.8867602324395889  0.1152831678203804
  0.1269251433588650  0.1313298259212562  0.3707128588545544
  0.3767714497050461  0.1287300101207502  0.3692093058034526
  0.6181265751405912  0.1262877327816099  0.3733760627775408
  0.8699731426451598  0.1208390655593232  0.3816175805030802
  0.1437104676850660  0.3680105735518518  0.3715675784972053
  0.4039917426775237  0.3710703822762620  0.3651593408570670
  0.6304862017262166  0.3733703571056188  0.3684230842406330
  0.8942858287413546  0.3729858229101964  0.3536282886928660
  0.1170291607833155  0.6073775225000674  0.3995789857702018
  0.3589690583102623  0.6240016651149907  0.3905595207369740
  0.6321805656445105  0.6277504299678855  0.3703970275191656
  0.8560470648441750  0.6434481523539456  0.3859236269770506
  0.1006713448698169  0.9000104037451518  0.3698812035643519
  0.3780356849420796  0.8719737183098299  0.3761677987415329
  0.6132565390870373  0.8849452468417864  0.3822587925529732
  0.8761886247462540  0.8707788779971347  0.3874391230285289
  0.1348070978823165  0.1310725910309695  0.6255648101699041
  0.3853123391507965  0.1231397227690611  0.6193622248224321
  0.6419504862670715  0.1155409437878692  0.6181869533608010
  0.8731832446399881  0.1201966240327129  0.6207190349109325
  0.1420480958968483  0.3645141776508684  0.6175150886940662
  0.3671577296080655  0.3785040788699909  0.6335944988331603
  0.6100186453743683  0.3703050697279306  0.6368904787888999
  0.8698770227139361  0.3571702588602111  0.6358374269411012
  0.1220440693084356  0.6236624795662202  0.6231800851082964
  0.3917694570761744  0.6101694989412024  0.6245957145164358
  0.5949375753422058  0.6417971628952720  0.6292145664918153
  0.8625463070012415  0.6631526875703949  0.6096554840815663
  0.1316436477333171  0.8683917269093824  0.6189961713759671
  0.3770459223304449  0.8639574499654119  0.6191211914410834
  0.6287915665060650  0.8781531251673119  0.6205524519948656
  0.8597746131499391  0.8792105784503356  0.6415530384596472
  0.1322487208268296  0.1190512228646480  0.8697505329554186
  0.3733998234926125  0.1333541105408908  0.8794588242721491
  0.6235976022179186  0.1292987009488590  0.8771255507984732
  0.8873297220879237  0.1127565149851347  0.8893378906230399
  0.1186755358350276  0.3881424207075271  0.8764669302178986
  0.3701494851596133  0.3648699564339821  0.8800811843435972
  0.6117067787170221  0.3733964839433517  0.8870923007169634
  0.8860893840326389  0.3627759935223638  0.8648299717247784
  0.1273940878365947  0.6310940790975537  0.8581731803390009
  0.3697305174442624  0.6133503591238686  0.8921705391090576
  0.6300268976317054  0.6152846855120404  0.8927340894182373
  0.8712975090087178  0.6169236499976902  0.8939578078882654
  0.1233651021830661  0.8774779737831617  0.8609866148077919
  0.3770831865562783  0.8591835332814530  0.8843493294368504
  0.6130768610229533  0.8879841500238781  0.8793042183065064
  0.8817869589084493  0.8816607726740714  0.8763289408052726
