generated by phonopy
   1.0
    15.9923497217343744   -0.0000000000015236   -0.0000000000010772
     7.9961748610645493   13.8497811253384029    0.0000000000003944
     7.9961748610645493    4.6165937083140518   13.0576988688087816
Na Cl
  64   64
Direct
  0.0209262849598116  0.9939462811337652  0.9852849625372887
  0.2445178132208530  0.0142162593117493  0.9970778991201794
  0.4991490863224670  0.9990179178915497  0.9823460600909383
  0.7416697241960879  0.0021179537211451  0.9886082195047732
  0.9930432968608880  0.2310095749096878  0.0126061915159167
  0.2433506266607453  0.2337201782100627  0.0064643539365789
  0.5003162461071681  0.2495395793962243  0.9947471567797354
  0.7396325256614555  0.2572800287686500  0.9806776552910864
  0.0122940466610625  0.5002055476979473  0.9888266318814016
  0.2555584879149465  0.5190932296619341  0.9775432450556146
  0.4988628746623444  0.4796204605735960  0.0071802509638733
  0.7542260057848645  0.4952469616388028  0.9991184724411649
  0.0069552365541017  0.7529690271522611  0.9996416499699389
  0.2598294072881140  0.7451720633440183  0.0008667216276719
  0.4909751359794600  0.7632141509778833  0.9992253710958477
  0.7551798610494268  0.7433416832405645  0.9956291177723137
  0.0100454365723899  0.9844699970949033  0.2334373128787349
  0.2446696183931452  0.0107675028671560  0.2477446622924518
  0.4954143255889227  0.9952471599024603  0.2553676702817652
  0.7585981829087456  0.9925811066383923  0.2542493998149682
  0.9653811368319100  0.2578332471372785  0.2693086391588170
  0.2505660687189788  0.2473772375423638  0.2658628207946325
  0.4889019367589218  0.2540670470880061  0.2661075304815269
  0.7590502147962356  0.2602734827759896  0.2248510984286617
  0.9849696544728016  0.5125360364068450  0.2444236824033997
  0.2542619200620332  0.5009566682442922  0.2353241996670812
  0.4967024446246634  0.4982691255451165  0.2514553760739945
  0.7569728571043751  0.4963582959910550  0.2511499251807399
  0.0117875404481452  0.7405890385922611  0.2526760103673123
  0.2376384767844832  0.7520999758041579  0.2517306776099912
  0.4967626834856385  0.7668146575499936  0.2374755351015195
  0.7535420913397685  0.7641894340289930  0.2367445225984770
  0.0099398507231206  0.9931502911325414  0.5032441459304684
  0.2367028450412963  0.9931048357742680  0.5184459860453755
  0.5075532619792175  0.9926499404120867  0.5053948645580946
  0.7488507500229199  0.9954950744205160  0.5042048128418065
  0.0128123740917752  0.2425291128617983  0.5101377340735535
  0.2384366118837397  0.2377048533617399  0.5215960646574321
  0.5088438949666982  0.2422165809422200  0.4953532139795253
  0.7634486718663280  0.2338960517809679  0.4864284573215599
  0.9926780155013123  0.4962094332980699  0.5068672982504736
  0.2503114869039251  0.5098987422127761  0.4997010098870813
  0.4964919725604620  0.4836116864103395  0.5033036578026195
  0.7394583475597413  0.5132918891995688  0.5021552473932821
  0.0086246769465740  0.7584284767975791  0.5062659412783661
  0.2610299978309139  0.7441542833042968  0.4911107297044049
  0.4996664978429942  0.7323013848885344  0.5068797821693120
  0.7591071133182966  0.7566739577288500  0.4868837178085128
  0.9747594533380955  0.0046654971021864  0.7642049387988926
  0.2341511862054376  0.0113733889522356  0.7548749785795054
  0.5175111450551294  0.9936887926966849  0.7312541191726947
  0.7508271762481348  0.0074329847279566  0.7490716127403095
  0.9919885778337649  0.2648276403585201  0.7532430301434886
  0.2401052039831106  0.2641732223254971  0.7431165637781147
  0.5071084234858633  0.2580191849125837  0.7321517870566188
  0.7498795961970650  0.2406494767766058  0.7572793691369644
  0.0106401432727106  0.5099261220092257  0.7343574151847467
  0.2336869184628874  0.5255885190872703  0.7413953635103634
  0.4948019205027249  0.4958425244557773  0.7587745339577614
  0.7451793004131331  0.5044752507388317  0.7469085847941089
  0.0067442083804951  0.7354609582542040  0.7599461907374698
  0.2590670469544270  0.7433374854970893  0.7279312068410210
  0.5007675990330910  0.7655789778412304  0.7319636535609739
  0.7588583291886194  0.7578676835647183  0.7336034672823898
  0.1257954960343467  0.1087053766172227  0.1320056917828296
  0.3605757579585458  0.1159225405891580  0.1300871635467362
  0.6203968491677236  0.1145704117395206  0.1188641404826238
  0.8852453063278565  0.1196531320328993  0.1221610077044095
  0.1242850981302487  0.3675284094898707  0.1252315017974808
  0.3649846496068705  0.3724024181930005  0.1285487543489215
  0.6289679742263364  0.3658442299078448  0.1285600888160257
  0.8641348679124726  0.3720501153940515  0.1146268020652673
  0.1289729782880979  0.6156071768009298  0.1193358613238277
  0.3640156543853051  0.6399603452906649  0.1279424221251874
  0.6330284231152408  0.6186405307370495  0.1272901559100864
  0.8838337922155122  0.6229469321664503  0.1139375646723201
  0.1168751394708902  0.8889534464098907  0.1238087086075765
  0.3613059726449558  0.8740196773428270  0.1362146274161496
  0.6178020417108490  0.8763787739418742  0.1073638955649089
  0.9061801514356383  0.8704285790517773  0.1145323284874231
  0.1311649992571098  0.1032553926165985  0.3760807595116686
  0.3785355046060178  0.1226516946158103  0.3802665852880597
  0.6341441664496698  0.1102111929651180  0.3834234550515406
  0.8635250922440707  0.1288408218222930  0.3749501160744061
  0.1284331055130644  0.3812548951953121  0.3749540078040847
  0.3587465256503595  0.3832572836663607  0.3736495472725604
  0.6307208671536833  0.3671653202501052  0.3788279418819607
  0.8751044294772534  0.3676960301706342  0.3819456486922287
  0.1387952409635555  0.6193937872829696  0.3876950881559387
  0.3957645317258062  0.6129902997409727  0.3786121559269455
  0.6281983426159570  0.6162071768606091  0.3897905720472780
  0.8774148390249544  0.6287200672358254  0.3896160277015503
  0.1172960220173045  0.8727503362585897  0.3609472407366144
  0.3650293432815692  0.8718905952904913  0.3765545226338928
  0.6256349401068297  0.8641749220485238  0.3954311294172801
  0.8713387586910404  0.8665468865500305  0.3859138607740810
  0.1000318046781618  0.1271093497218765  0.6424775856547189
  0.3716564183140149  0.1222058901067928  0.6159869997412337
  0.6400535667700803  0.1330185376161358  0.6212224240175687
  0.8710999924017264  0.1435937071487816  0.6062316562211502
  0.1422479281386415  0.3763994724609394  0.6298361009208450
  0.3610669562407627  0.3842591460635600  0.6343455635488131
  0.6402131218052294  0.3776299585399220  0.5991134020449456
  0.8790544623512854  0.3690482850186051  0.6335055371459838
  0.1332015029394956  0.6217160388039684  0.6108087952806531
  0.3625349267189871  0.6165254393601857  0.6194373679828746
  0.6215922579628377  0.6327139788406583  0.6028851420420995
  0.8619335186149603  0.6105485463702212  0.6340670475991423
  0.1185625344060339  0.8696987148979735  0.6341990248571099
  0.3692071671500299  0.8754910905808914  0.6228204261111857
  0.6398280895750649  0.8784572787566146  0.6138237378535054
  0.8635092700661992  0.8855774543010142  0.6368231812285291
  0.1139200004943145  0.1292631620731698  0.8709120278286139
  0.3820304160271432  0.1239347369522271  0.8767982089692457
  0.6199839677304346  0.1246641736611514  0.8743997160206866
  0.8753503103665924  0.1216900996103841  0.8664603958320238
  0.1149177020988699  0.3710595693782994  0.8901103792474890
  0.3523255205930155  0.3841962940121603  0.8748294113523349
  0.6328903601355951  0.3684949094488428  0.8763177274457059
  0.8629256516234682  0.3565612630947084  0.8832098498880483
  0.1127565787832930  0.6469791495763131  0.8615455867100608
  0.3687565162903602  0.6170102942855702  0.8758253803079369
  0.6039148982527361  0.6542686546323773  0.8746069438168315
  0.8618119523071194  0.6229892806418696  0.8850483421621949
  0.1232454477438754  0.8847129731207164  0.8716026877001803
  0.3624225709754592  0.8778928644079375  0.8813293183210545
  0.6470705187283492  0.8717627939679057  0.8604268931514515
  0.8917355184434872  0.8583805057176747  0.8813467230002611
