generated by phonopy
   1.0
    15.9923497217343744   -0.0000000000015236   -0.0000000000010772
     7.9961748610645493   13.8497811253384029    0.0000000000003944
     7.9961748610645493    4.6165937083140518   13.0576988688087816
Na Cl
  64   64
Direct
  0.0016267715308422  0.9962292535023582  0.0057047920081042
  0.2353679203842759  0.0068103519285847  0.0062630135857112
  0.5076545724154037  0.0056633360168406  0.9914127641954458
  0.7474064549069483  0.0257058723960340  0.9934357233597030
  0.0022965462804572  0.2433502654268534  0.0043130724228096
  0.2544313252808138  0.2414491374084272  0.0023421156076071
  0.5013970515673190  0.2473840594981331  0.0083632539077594
  0.7614047893322694  0.2345513232843448  0.9925452249277746
  0.9801491888688961  0.5030410759756134  0.0067802828427021
  0.2362451562014633  0.5032955721823641  0.9964468746533045
  0.5011398017578959  0.4950989739551396  0.0126617417879734
  0.7398856889428945  0.5030452543984311  0.0177266957247262
  0.0024851397031875  0.7425885517591693  0.9987354290624458
  0.2401328924779514  0.7563563245448476  0.9983789958907899
  0.4884853393010082  0.7560007259997338  0.9999688515300892
  0.7470842970593858  0.7713180084973142  0.9777946785644200
  0.9839143335668853  0.0055128685493614  0.2391621222935114
  0.2484998244327763  0.0055988042203789  0.2486963311563905
  0.5160779093357557  0.0020286080060836  0.2541993722747748
  0.7483031549218738  0.0024519798645882  0.2493887816791877
  0.9766719527312261  0.2600773456026146  0.2521505067964221
  0.2543237669624955  0.2430376268650653  0.2561908186591295
  0.5169851030358699  0.2465212844402336  0.2539408663141207
  0.7579811827724096  0.2430558088405835  0.2410894330369755
  0.9891861300002127  0.5109661607266586  0.2619029564312570
  0.2515143109958919  0.5012384174342196  0.2548289086452852
  0.4950973005711725  0.5031468812143721  0.2427311200023921
  0.7610646773905331  0.4909511378997505  0.2495342831825635
  0.0013837693493698  0.7523493936059402  0.2470305653311102
  0.2412533439541277  0.7520389176099347  0.2532380072476744
  0.4998265202995953  0.7475974010443250  0.2394337546563270
  0.7239597991648199  0.7551303475262889  0.2454346983818876
  0.0078062061280343  0.9959825288891175  0.4968265260938192
  0.2553336808294328  0.0017494129715349  0.4902100445453377
  0.4994837825559040  0.0078962124191987  0.5008513405426971
  0.7438284027377183  0.0189467748473109  0.4930673396273688
  0.9960928254984486  0.2393167712157496  0.5031300971524940
  0.2502260124462693  0.2387197420309019  0.5064010031409878
  0.4934865695610656  0.2507272752551651  0.5088609742117225
  0.7432011952309691  0.2476002237129366  0.5169161339722378
  0.0029829406351870  0.4732788516611910  0.5099271136616251
  0.2492970040361546  0.4966761860739843  0.4942567828103859
  0.4796625298576851  0.4883729320098074  0.5086902859071071
  0.7351906501234209  0.5083889668600627  0.4808704402290429
  0.0086332977749349  0.7326072622336998  0.4963893207576390
  0.2683112903829121  0.7385763121844007  0.5005938864987056
  0.4971899271479678  0.7424389175836490  0.5015696003081153
  0.7406576274520694  0.7381596751606783  0.5221379690986550
  0.9946385001337871  0.9999703998017849  0.7550281629224149
  0.2407302764942632  0.0183342999584344  0.7587787403405781
  0.4996203888695249  0.9948477595780340  0.7476690822034079
  0.7509046491998348  0.0063150349399794  0.7454669047128397
  0.0175333761006172  0.2287137942479339  0.7427584072847456
  0.2444400713916394  0.2558830637712691  0.7392724342834941
  0.4943797991114859  0.2548532877940206  0.7469421414241550
  0.7541007332035986  0.2682587841518541  0.7280613604962355
  0.9750004165221742  0.5136479156160731  0.7602813901491395
  0.2362255241882375  0.5159454856857351  0.7418071993141462
  0.5007965887907574  0.5086252407446528  0.7494397651344267
  0.7449769325823710  0.4979834655041637  0.7705110506908158
  0.9863315146418121  0.7653310354942461  0.7489724013472231
  0.2469574862920885  0.7577263557082623  0.7624765171555414
  0.5105312935428655  0.7509068892086290  0.7418525132178181
  0.7605014485340500  0.7531540212304695  0.7362174603208275
  0.1169437601667245  0.1171684387516560  0.1380311217688689
  0.3665760244708157  0.1180459828460620  0.1239196324117175
  0.6109229495461830  0.1082990619032135  0.1585448987343868
  0.8770096068400375  0.1356712503377193  0.1182493033431158
  0.1187992822792759  0.3671575291946749  0.1299347654756031
  0.3609194269386134  0.3923372586939399  0.1362360347778629
  0.6320042331827913  0.3718150517708384  0.1175026395811628
  0.8607977446068614  0.3815773163445821  0.1190478593304287
  0.1387220082444904  0.6183460710744898  0.1336091133316852
  0.3614250640435865  0.6205895795287425  0.1459760944984138
  0.6277650322074352  0.6274895399304827  0.1217082512477037
  0.8725645001263311  0.6183047408850713  0.1365004788592438
  0.1321493098423855  0.8899609267935034  0.1177535287479706
  0.3887763858201062  0.8750371262682292  0.1227746651509610
  0.6422668011457677  0.8721680898313297  0.1160481805864940
  0.8770511335952753  0.8792405578388349  0.1232175370074557
  0.1231983996094669  0.1415753245064483  0.3549150218815066
  0.3765491535156226  0.1408044153838840  0.3801704398841592
  0.6086694475800550  0.1252500081942995  0.3827569955753123
  0.8873897618705017  0.1323283189383510  0.3703323586627619
  0.1070938613824886  0.3760336481880654  0.3847943615436625
  0.3741533779094665  0.3789227179726181  0.3905611377864739
  0.6303761810967697  0.3636823047673049  0.3788635474974517
  0.8840827881049225  0.3587726838311597  0.3746447120363248
  0.1150695262640474  0.6328750473586664  0.3726167316523549
  0.3583241391011188  0.6163345804303869  0.4014318049659663
  0.6149891000533283  0.6256064561698134  0.3889133803236600
  0.8817812948632020  0.6265614908876653  0.3653861899640693
  0.1134980567523735  0.8877382904923315  0.3695925168640409
  0.3586172763676726  0.8761176230461032  0.3692681917393644
  0.6328103513650779  0.8755389710039311  0.3653588849934565
  0.8928676034696719  0.8651857349032120  0.3826444383172397
  0.1177237268742129  0.1199584172082550  0.6349363126990338
  0.3782806933642284  0.1183808364526468  0.6209625475019046
  0.6332253954168685  0.1241446246692963  0.6269987979969195
  0.8855916775177159  0.1153956462890139  0.6313836891854513
  0.1254332892003743  0.3649313496823204  0.6248225625892458
  0.3694971976537840  0.3823772715272565  0.6417089222595708
  0.6092941947615057  0.3772404448975691  0.6407917938639273
  0.8614134503800809  0.3657418395603751  0.6370800764161652
  0.1169125296096068  0.6022729826699582  0.6471389413824754
  0.3857560104826015  0.6296536774511061  0.6134835343754577
  0.6060401413462974  0.6277745894567132  0.6313540099936060
  0.8765785474853761  0.6261188992383582  0.6379821640832313
  0.1223898934648124  0.8550376057949433  0.6308761450490161
  0.3602150842180684  0.8764583896040049  0.6275798743781301
  0.6333277170317965  0.8792807879547498  0.6283958618623371
  0.8830052847921869  0.8555602576979605  0.6436463917713042
  0.1155374628416614  0.1316199470383483  0.8772687652381017
  0.3785565615921093  0.1187285723469086  0.8778540156212022
  0.6263584977467195  0.1162009625154536  0.8847240569787566
  0.8832175813328336  0.1164829559033222  0.8702381538323787
  0.1288083959961852  0.3733998597928816  0.8648723585063830
  0.3401826886778480  0.4012224121703407  0.8840304933792759
  0.6170316706971182  0.3664637172729143  0.8893354964311904
  0.8661672574155337  0.3688065463490787  0.8901597431925639
  0.1219981456295084  0.6074777066865334  0.8814772344148385
  0.3750829283164518  0.6398283057745282  0.8681447200676602
  0.6110667499607916  0.6315095057356636  0.8830228655588432
  0.8644087960288205  0.6227764444223514  0.8879555461018893
  0.1296213204072850  0.8767719371897938  0.8743862889180739
  0.3675718815519510  0.8717696535269287  0.8832950890519619
  0.6242652725928396  0.8831146838440139  0.8668389023855145
  0.8676213893940825  0.8757895735179555  0.8818733042713008
