generated by phonopy
   1.0
    15.9923497217343744   -0.0000000000015236   -0.0000000000010772
     7.9961748610645493   13.8497811253384029    0.0000000000003944
     7.9961748610645493    4.6165937083140518   13.0576988688087816
Na Cl
  64   64
Direct
  0.9941012700473520  0.0025777413691826  0.9945424134354982
  0.2601106838012969  0.9969987889574252  0.0125210721757142
  0.5016648583272062  0.9981771499400623  0.0031694869148716
  0.7431964357257952  0.9935622043271984  0.0120104314522531
  0.9846570879853854  0.2413126324301416  0.0209141444990535
  0.2615391774371749  0.2484288253194829  0.9898078043383880
  0.5051272685025932  0.2501274648969786  0.0011051016270748
  0.7592578710854109  0.2624931424087489  0.9914720649496320
  0.0201026134348371  0.4901915603930420  0.0057219952693585
  0.2474286670220273  0.5062995994745388  0.9944966362134828
  0.5052970650170094  0.4870175062252540  0.0022566738845645
  0.7529423059047485  0.5123522616114902  0.9727599099320378
  0.9939487540884302  0.7531155932105843  0.9969856100426872
  0.2490000360724999  0.7531893901311402  0.0014299633194721
  0.4881248134129841  0.7654189405148444  0.9868531867271476
  0.7420339335492594  0.7448431092062846  0.0073262145017674
  0.0022893464530478  0.9897894620909976  0.2728376528367791
  0.2330456293698973  0.0070160565080419  0.2516797650861087
  0.4873303704897630  0.0159697638363740  0.2549716951430906
  0.7579591264215865  0.9997559825305476  0.2414029472100447
  0.0016098583600773  0.2658092877210704  0.2345899781709600
  0.2411265128611537  0.2535888444272638  0.2544476695406112
  0.4773256109990276  0.2446019331789544  0.2582827700333722
  0.7635867791426901  0.2393283943422232  0.2573582838913361
  0.0085907290388599  0.4947518747745820  0.2413978056316984
  0.2408555412893162  0.5145780970145493  0.2439142964053631
  0.5086953148807657  0.4974463035189879  0.2482357395128638
  0.7627386411561379  0.5049907710336541  0.2341767255944529
  0.9914041039271778  0.7410788530056811  0.2496404050515154
  0.2439263214373654  0.7674236080888186  0.2300964714964766
  0.4966007685004317  0.7493031613611387  0.2624971930220341
  0.7495610134214574  0.7521303205662861  0.2472344992947135
  0.0170991183220433  0.0052248469269537  0.5048750909855603
  0.2557553232358422  0.9977819980479145  0.4949634825120375
  0.4874875447087139  0.9997683332473120  0.4858862595975392
  0.7346057264703376  0.9894648982752251  0.4984734902951396
  0.9952359173817568  0.2449025091540729  0.5034256694367255
  0.2553984401525252  0.2526456144119215  0.4918924921134369
  0.4928060441612687  0.2700326479036423  0.5066893286584008
  0.7393776492666339  0.2368258610434652  0.5038656931977470
  0.0031078301715321  0.5160859756549016  0.4784936365132135
  0.2503988108724984  0.4834963738819187  0.5193573857264931
  0.5263554524236846  0.4860258359776949  0.4995491591178792
  0.7423094588093219  0.5004762324384238  0.5072622103816604
  0.9880400162341805  0.7428760774774935  0.4992595436055001
  0.2621231513096306  0.7266496713709317  0.5052199430529755
  0.5003331933965082  0.7337509434511460  0.5071430554018657
  0.7601911751439513  0.7689714432056545  0.4885649471688912
  0.0142337990789624  0.0012884671634782  0.7447263667954246
  0.2653655361645983  0.9974623940636045  0.7494386978118619
  0.5044108504282552  0.9920168756027470  0.7638112060753705
  0.7486365937938552  0.0038699009059715  0.7505352693815783
  0.0000206113598942  0.2477336590239426  0.7638315738237504
  0.2503260834119073  0.2567769029741268  0.7510969325029829
  0.5183669823395077  0.2261693068281957  0.7564827040819173
  0.7542271880894144  0.2327137399598214  0.7512683877506677
  0.9959522015987947  0.4901980163705438  0.7547479491848881
  0.2599643623236017  0.5067786389965132  0.7449719112541677
  0.4939116589264589  0.5059095995473288  0.7465818098451474
  0.7561969663693928  0.4987689766292361  0.7426489774255051
  0.0018070018867360  0.7519272997973540  0.7261850581356243
  0.2501283825083948  0.7469561588157446  0.7513046235818146
  0.4906273532747282  0.7649573492758438  0.7390180017583975
  0.7532532650681496  0.7585193444232041  0.7370947501857679
  0.1229163765914421  0.1220484378834993  0.1236786998106686
  0.3809525549996466  0.1216978253209861  0.1254495858357449
  0.6332022567309460  0.1312232152496536  0.1188384639732922
  0.8670004400942135  0.1221664076671794  0.1322585004113566
  0.1360481119673452  0.3806396156672920  0.1196603935723462
  0.3880968627995591  0.3563824617574392  0.1247843678009156
  0.6055709245156446  0.3850466976338581  0.1476874327042235
  0.8850500057420040  0.3610954413480585  0.1323102899306814
  0.1263984481991748  0.6266220056880938  0.1351894568339510
  0.3594796915820766  0.6341353919768358  0.1186744835140912
  0.6264383750872610  0.6320228478785996  0.1176004596640594
  0.8605597180519371  0.6281490112814800  0.1403135066834042
  0.1211699424380970  0.8782964128671594  0.1333265068287808
  0.3582406729292897  0.8901706931686927  0.1201991871618134
  0.6276957561948319  0.8829605397898509  0.1234342765594994
  0.8753351597252804  0.8774918363737070  0.1243246856942365
  0.1393329427261927  0.1274261145948884  0.3632583354121202
  0.3669998952172459  0.1317960315839473  0.3766083485857002
  0.6130702454920737  0.1180662212901787  0.3909981428458812
  0.8541550133118435  0.1258251996840628  0.3796505296555346
  0.1255611351342114  0.3629044557363933  0.3843478459051999
  0.3673424067464895  0.3837682371179537  0.3791369118834658
  0.6278490784304712  0.3754853018486057  0.3726955442712785
  0.8729322820438787  0.3790540711692753  0.3632496430578263
  0.1244194003961292  0.6245346236407067  0.3596172683062567
  0.3666636228655418  0.6285894357378323  0.3820750006697631
  0.6151625812192311  0.6221421193475672  0.3730977839076388
  0.8617110116229418  0.6408918321203907  0.3690363340012730
  0.1200675265358588  0.8790501255412315  0.3756915467096681
  0.3585934817947432  0.8807098966104749  0.3684300248863980
  0.6143588398884978  0.8734227333380565  0.3853109535113971
  0.8586726427654493  0.8831581758765239  0.3644934998994177
  0.1192951410016459  0.1267488252844936  0.6326876284882905
  0.3686918252137005  0.1491523026380448  0.6260688836268347
  0.6154403757373565  0.1133751971613156  0.6431009348423665
  0.8862451377875623  0.1180349439862618  0.6254814176462773
  0.1216969773399544  0.3642944167403752  0.6286089426544478
  0.3788473239239761  0.3634008262459661  0.6361415486470575
  0.6174014707577339  0.3752967982263214  0.6348833837132853
  0.8953830353304540  0.3649462417575299  0.6051334159992848
  0.1353794762084353  0.6257187304990022  0.6160060323111300
  0.3767709245092108  0.6200841337575144  0.6374390009224624
  0.6246710648788099  0.6339222019172346  0.6206990734219883
  0.8699227920201554  0.6190827887398803  0.6439566952395276
  0.1251817218803001  0.8669347846735792  0.6399773555291199
  0.3763428981606491  0.8832754251924320  0.6233566476276572
  0.6240322487342050  0.8807932085672113  0.6158745640186355
  0.8715196866987953  0.8795717833806590  0.6220771547867038
  0.1365081724616102  0.1303120007892599  0.8498362014885366
  0.3679197425503385  0.1147104809325946  0.8676598956478614
  0.6012382938533266  0.1436198097378953  0.8815814468073785
  0.8693992210995438  0.1285670963544093  0.8794821679279611
  0.1241225739556451  0.3811699108388720  0.8593642907833560
  0.3938426192181633  0.3702061630528083  0.8586979168954966
  0.6141112311155479  0.3866890355610664  0.8731157807156765
  0.8636512769716345  0.3797263279803806  0.8859702361179697
  0.1211345505114956  0.6289390448089872  0.8731189770131472
  0.3613056936258918  0.6191516376909559  0.8905385470229736
  0.6243198242356044  0.6181002512193160  0.9022860202078556
  0.8858914055699475  0.6144306863043394  0.8833197385009224
  0.1305673880670178  0.8659769016851155  0.8593412173014819
  0.3604698544987958  0.8802487083468640  0.8783206493753157
  0.6219512041378079  0.8751293852650922  0.8469185603330924
  0.8749560155792037  0.8689384230184606  0.8861516845917631
