generated by phonopy
   1.0
    15.9923497217343744   -0.0000000000015236   -0.0000000000010772
     7.9961748610645493   13.8497811253384029    0.0000000000003944
     7.9961748610645493    4.6165937083140518   13.0576988688087816
Na Cl
  64   64
Direct
  0.0089066589220296  0.9698643150302996  0.0125218721416279
  0.2301348616722223  0.0119640123955909  0.9987377747542181
  0.4853955722675398  0.0137853317331448  0.9814370477545993
  0.7461523992067146  0.0042108356933233  0.0018826868246565
  0.0055349055149463  0.2466844041229830  0.9989921920873821
  0.2421083604254665  0.2637511233112406  0.9920328148075248
  0.4875958980723001  0.2627391299659339  0.9905206099139559
  0.7617689584377780  0.2473285715435693  0.9932187768264665
  0.0086944111500771  0.5133169811263869  0.9866143472608762
  0.2412001669142654  0.5025579775579558  0.9997214048275979
  0.4961108773749195  0.4781979786478994  0.0220726206706380
  0.7419638625359654  0.4981997881530745  0.0054898767720477
  0.9864433371002084  0.7516943981672188  0.0057295515807573
  0.2431904637936984  0.7585644362823230  0.9927024427650023
  0.5060790292548788  0.7524639401514257  0.9881242298568231
  0.7548460430101664  0.7407919210997861  0.0037626102863214
  0.0178710213669115  0.9952416734856425  0.2470914086729198
  0.2341704445885010  0.0112945879570323  0.2614113962071761
  0.5073826574255129  0.0152514574058103  0.2228773029327047
  0.7489538978143104  0.9997848879294856  0.2608716908163320
  0.9949533944993260  0.2840119627148303  0.2408075038233278
  0.2551848410777370  0.2523003090915964  0.2456916266636935
  0.4773588251861767  0.2475441122489080  0.2532784979617120
  0.7683339237047470  0.2399627528066482  0.2558374180258756
  0.9948315020632734  0.5072461069729547  0.2557188667293410
  0.2564184899625355  0.4968504107867550  0.2506521789149722
  0.5247800265914858  0.4837751617473720  0.2440034851870048
  0.7425927657028214  0.4990226688502951  0.2564071563738010
  0.0060993821569209  0.7337953875072774  0.2463814489104666
  0.2487332689858286  0.7404231651587432  0.2590575364494974
  0.5032732228022037  0.7362230142003893  0.2441074522262344
  0.7539118886546419  0.7321320075740465  0.2507219964820865
  0.9736955842844558  0.0028980533790122  0.5111518066978272
  0.2593094655300078  0.0020075052326093  0.4836149441114724
  0.4967558318302936  0.0008713396534909  0.4988510227817203
  0.7605235023248710  0.9969419580366358  0.5003407885458430
  0.9831340556821704  0.2480423917340462  0.5094132844862931
  0.2713516168435048  0.2433211925207659  0.4780666989278224
  0.4819606874940007  0.2569471883310849  0.5092004867063733
  0.7540811493327629  0.2282462756910977  0.4924697114550065
  0.9968004559797257  0.5014065960888896  0.4913423791774746
  0.2578653163587629  0.5153616928300997  0.4885364930318383
  0.5085382800040393  0.4716622541255836  0.5018651935614978
  0.7488441172222192  0.5101576087238534  0.4819481095728133
  0.9980745732615152  0.7366879550777136  0.5037652193049637
  0.2430243351487733  0.7566395664845627  0.4861938767322989
  0.4966725227847262  0.7550394690747515  0.5008744280040048
  0.7551596476516147  0.7270618010493093  0.5031291391334024
  0.0010488119940119  0.0029461848350919  0.7536056443641767
  0.2508493233015119  0.9980518260621939  0.7555670244119879
  0.4988010006231518  0.9971828593532192  0.7485806165435507
  0.7564087994219992  0.9858721342633652  0.7451088452196146
  0.0034374415026100  0.2446932429220882  0.7392313210567526
  0.2408273047678217  0.2646549247225751  0.7497417313330847
  0.4977580861051729  0.2311156917529924  0.7635475631010822
  0.7636453491824083  0.2449635510335517  0.7447485895289573
  0.0048809100007580  0.4935068540297012  0.7403397588469495
  0.2491248120230403  0.5042036250195958  0.7405072746761882
  0.5112103816996207  0.4969863503338468  0.7473100264616206
  0.7522606976700712  0.4973446734357684  0.7319170740906897
  0.9796418514129382  0.7646028585582755  0.7522616905038959
  0.2447563451466918  0.7511000988784785  0.7452910979387365
  0.5211305829845795  0.7567051905781885  0.7465849566440157
  0.7520625124599952  0.7552225760081391  0.7608851487307567
  0.0836226296165544  0.1215091712955499  0.1461104476893756
  0.3639004807932549  0.1341029886475627  0.1298598916332114
  0.6164426519942235  0.1197214557825027  0.1331024250788934
  0.8887349182865788  0.1073664703501805  0.1236059331538121
  0.1271003118139667  0.3701567499066864  0.1157107929656354
  0.3830754524372235  0.3841593815978688  0.1272542537309122
  0.6282505825890763  0.3815970418233105  0.1132464797118769
  0.8772701972400246  0.3818002224382729  0.1204581053730917
  0.1401657141567309  0.6042248420591713  0.1166117662721970
  0.3740614021308735  0.6420758361683506  0.1218688483988555
  0.6288038900173664  0.6439713872755480  0.1151654507251072
  0.8710773303775587  0.6193074660054569  0.1158819246179774
  0.1541256473335977  0.8717370905012468  0.1010442983702896
  0.3716268096711948  0.8685879912511911  0.1278219048639254
  0.6293763630167339  0.8732823242089844  0.1359478838607139
  0.8871786197149200  0.8538937771501407  0.1209739849603405
  0.1245953811106527  0.1329483218757359  0.3742034221737587
  0.3612639892250650  0.1355010632726641  0.3910021906049295
  0.6290992236895162  0.1299066337619925  0.3629821143717930
  0.8739888880762295  0.1194164725862307  0.3813598533965427
  0.1246230727524811  0.3793314743294919  0.3722748427967651
  0.3681185881723484  0.3696122113217200  0.3913849189471448
  0.6204571971395866  0.3643748273925553  0.3850060763454787
  0.8811130263280117  0.3580840342874430  0.3781614359027240
  0.1261302924865688  0.6354114696376737  0.3804649100755516
  0.3710539299093533  0.6250334358621474  0.3896589211662729
  0.6322348512332897  0.6185449101424950  0.3799483603314119
  0.8694738888540148  0.6206344150831542  0.3864169468979059
  0.1442711712139170  0.8748527015064875  0.3585737909434938
  0.3857550914843666  0.8817658374596635  0.3520557611200387
  0.6316788265496549  0.8727665970372608  0.3694077492734777
  0.8617758977397112  0.8835605921100254  0.3880103683022584
  0.1058145329460259  0.1168474452991750  0.6506107683388480
  0.3803809943075458  0.1287532768603526  0.6196618377333485
  0.6205026676658525  0.1449501269163209  0.6045998307470829
  0.8726041555039004  0.1235708763132574  0.6127068564858609
  0.1458230277013016  0.3774806937692274  0.5884463758315551
  0.3615349962339222  0.3707961733739392  0.6335142859885956
  0.6077529249418113  0.3790357170294446  0.6190996420026824
  0.8575049910117403  0.3807283448035782  0.6357657746447462
  0.1398069559644687  0.6082565474588735  0.6260434928399955
  0.3596735792679203  0.6303330585530097  0.6220910560488553
  0.6208860890842003  0.6264104782299975  0.6297333047304374
  0.8745211897121900  0.6287473730522227  0.6231583723387687
  0.1096406448763259  0.8737450456656171  0.6303365634760029
  0.3744441363360769  0.8796229374946697  0.6315977114495701
  0.6257141164044225  0.8791031480697871  0.6259445541171731
  0.8838809261010184  0.8903656873393170  0.6136743895810903
  0.1182522808550479  0.1231431912772453  0.8679287372594052
  0.3728373199432880  0.1163786216746861  0.8748776958141655
  0.6413829451416224  0.1173110487699056  0.8588756359989554
  0.8667054980784797  0.1232012633634988  0.8763917630927127
  0.1217411632785428  0.3823482997914585  0.8759164508210905
  0.3646034436172654  0.3832718444718980  0.8761691127368966
  0.6044914440086909  0.3792745210007148  0.8822393805413284
  0.8665047983516151  0.3829202077205942  0.8650559991834817
  0.1222506141795501  0.6323934025369239  0.8644001207114578
  0.3833038298169900  0.6078324044155105  0.8634475815565021
  0.6239960986926077  0.6201505743941211  0.8592717492201886
  0.8737135940374753  0.6130921935596967  0.8830183025578419
  0.1240383166094289  0.8774257484391805  0.8631718318227680
  0.3758950632556368  0.8528311006353272  0.9015025032373525
  0.6299975296514736  0.8601715079671091  0.8802358847417354
  0.8875289836934119  0.8681920089176582  0.8728061787867482
