generated by phonopy
   1.0
    15.9923497217343744   -0.0000000000015236   -0.0000000000010772
     7.9961748610645493   13.8497811253384029    0.0000000000003944
     7.9961748610645493    4.6165937083140518   13.0576988688087816
Na Cl
  64   64
Direct
  0.9949686525421217  0.9874736613551729  0.0075029664567086
  0.2643091878787238  0.0153417059649244  0.9724564980389186
  0.5046418863396392  0.0002041818475344  0.9945515839434544
  0.7519849419040014  0.9906335283688809  0.0091535112472576
  0.9978413551860538  0.2495038712014720  0.9962739641894555
  0.2387280558895655  0.2525848112098197  0.0238402349378343
  0.5088772720535203  0.2453290017799800  0.0053416034894923
  0.7562262851183233  0.2479852274943981  0.9947680688701142
  0.0133222334489029  0.4948607867735149  0.0003592511328931
  0.2415626009161657  0.4910614734219775  0.0064274236985007
  0.4966663239702043  0.4948380871613305  0.0047066642108273
  0.7477382798621247  0.5146772136074605  0.9852152605144640
  0.0237381626588403  0.7341373795942593  0.9918420138078592
  0.2566718851994922  0.7581760425315880  0.9876965139879024
  0.4822838270137338  0.7652916712142716  0.9969518554182232
  0.7746820824908820  0.7396687550936758  0.9926713502239716
  0.0007462386460540  0.9913825102767455  0.2467470073708898
  0.2506490038264461  0.0082097559542380  0.2330167019852395
  0.5120954850385272  0.9977195338660371  0.2438912691412072
  0.7547692658086054  0.0117487708361138  0.2497866343947753
  0.0037369941773635  0.2608079833429064  0.2520322256738293
  0.2374100116213140  0.2465909492832735  0.2663668381198617
  0.4989494981683073  0.2454112585856763  0.2500901602630672
  0.7661145383872887  0.2489130948071115  0.2514190122882435
  0.9939307443849885  0.4975806656307299  0.2496090120953222
  0.2463673722372274  0.5009401296694079  0.2493142078240142
  0.4911210792986052  0.5151091348587071  0.2342716624906446
  0.7347761831758362  0.4989963487691743  0.2512281717752768
  0.0086496444400764  0.7436129543542221  0.2463537821863666
  0.2551388688744773  0.7560640574520138  0.2423853441512312
  0.4859086940595461  0.7448842496744731  0.2524014186441481
  0.7538243408416460  0.7563264906833438  0.2238367736040035
  0.0014136831123780  0.0181955278412454  0.5037658829000820
  0.2352511396947519  0.0083911394831312  0.5061064519259419
  0.4900390237272740  0.0086744595332095  0.4849096758180650
  0.7628211230220352  0.9841449141029828  0.4857050907124067
  0.9858860725762786  0.2619504753721647  0.4992149278889129
  0.2316119901699482  0.2575432862174044  0.5282408919310366
  0.4936023736864467  0.2527734183228958  0.5050718438000907
  0.7521529794484676  0.2356539022136164  0.5128192711668503
  0.0006898519413646  0.5032325141880603  0.4965614709115170
  0.2672224125317261  0.4809840177210360  0.5079551577449158
  0.5060312074105736  0.4982211050659848  0.4984339132368929
  0.7358768464704054  0.5136863458848897  0.4887285487569283
  0.9991923012423980  0.7704697691431630  0.4793747447603865
  0.2490541166692623  0.7411799484464812  0.5022847855255117
  0.4974163522142348  0.7468563036929029  0.5040139844538607
  0.7481709680262663  0.7423866310803467  0.4993778259405978
  0.9723908943433184  0.9947083647972769  0.7771238838926134
  0.2412513974680904  0.9995606188769496  0.7559586505205685
  0.5003217309667115  0.0109015644965724  0.7519386362237860
  0.7344099051875865  0.9873031238634611  0.7767389918765475
  0.9953072310076690  0.2677102783014335  0.7512628673011595
  0.2518342135034916  0.2674561236531203  0.7458292530390076
  0.4915883721529525  0.2601647063743604  0.7499119021490512
  0.7486228616813978  0.2568680067300992  0.7535028353355159
  0.0048343166535620  0.5036243108019280  0.7418107466665597
  0.2545973888472950  0.5200783909054961  0.7392309593032649
  0.4861534236770800  0.4821254689904093  0.7666075262948071
  0.7440847417421181  0.5166656468690084  0.7377654537036906
  0.9887983664810103  0.7634539200971359  0.7438887180373553
  0.2562676208859103  0.7460248170784248  0.7552001721407886
  0.5133671235466658  0.7419393071645084  0.7428150559408118
  0.7573203936541089  0.7421628694984093  0.7411739652409988
  0.1164058077964639  0.1252239856669030  0.1391236903351198
  0.3793007891133184  0.1189061613097475  0.1256183563904070
  0.6156610895937034  0.1175290107382026  0.1364292362458611
  0.8635292186350226  0.1293890358170912  0.1330440817732101
  0.1270664179325006  0.3628567080582387  0.1390659204714801
  0.3705372463315273  0.3679403200300941  0.1290722843947721
  0.6413499951085831  0.3860885367181279  0.1078490754617166
  0.8643588205085740  0.3746163565055773  0.1287011241758949
  0.1273931534189031  0.6208241687831093  0.1301670996555903
  0.3542498573669101  0.6376071362907286  0.1377270228864754
  0.6222154432824422  0.6206895132335856  0.1366846307841740
  0.8789189539211176  0.6375620805602439  0.1204851872433679
  0.1230398689320055  0.8673558590237311  0.1289701498024236
  0.3772940058296232  0.8867356563586586  0.1124314570938332
  0.6112507428812904  0.8838871496432973  0.1411928107278551
  0.8740425989150434  0.8850882439707982  0.1240151988816555
  0.1208890163727021  0.1221321331543175  0.3748885122309458
  0.3810477582887373  0.1185658945875341  0.3839103963568863
  0.6160854100371935  0.1169210051663623  0.3877877153074691
  0.8941855192042759  0.1307065043190775  0.3620391713842580
  0.1263702975078368  0.3703027565289282  0.3840829002760048
  0.3655584936115111  0.3767514828017945  0.3889225565375062
  0.6205043647197311  0.3713414399532545  0.3700080261204261
  0.8707459137698755  0.3894607437294137  0.3656608584314633
  0.1287880641515111  0.6219613526467876  0.3789630784917538
  0.3689324741545688  0.6370661756476496  0.3915048533516458
  0.6118450982224459  0.6294479244675484  0.3731687029970028
  0.8706995119583110  0.6444116936504897  0.3731700257651756
  0.1198287034080545  0.8725351087887047  0.3793796969733403
  0.3762628163535292  0.8604152133420288  0.3784443271295852
  0.6282436020100284  0.8636278032974543  0.3860414136841965
  0.8778610744884159  0.8701222508831842  0.3847856121304623
  0.1230700600433999  0.1074371201212651  0.6457566368025640
  0.3708122136934806  0.1264607948164738  0.6221297993337875
  0.6244118380094515  0.1137364150206916  0.6237974963178652
  0.8827416737971671  0.1190716381539701  0.6193628787175364
  0.1389910859339188  0.3678455573436401  0.6191464856557218
  0.3779710497992634  0.3819551865818432  0.6112436104191089
  0.6208137622521580  0.3849427597295550  0.6233678316018854
  0.8753619819609323  0.3912601817165499  0.6192342816293740
  0.1163228103277837  0.6462119313973399  0.6390948573269065
  0.3640589832866367  0.6276977507146959  0.6319655753752366
  0.6142562631012667  0.6460575928699456  0.6008197555844086
  0.8731305004864157  0.6015350444792833  0.6344128770856802
  0.1331461585201624  0.8903094514564399  0.5977451910157107
  0.3457582725372786  0.9012191637563569  0.6287805598781080
  0.6371774482655318  0.8773633812196614  0.6099352404919363
  0.8755852396654197  0.8784918607799899  0.6225821897575876
  0.1126300228313467  0.1332293993781735  0.8740292419351975
  0.3824908942886655  0.1152154560922612  0.8641932239639734
  0.6275597443525864  0.1206989896807426  0.8748773435467224
  0.8816674482217575  0.1233223193057982  0.8798708537909307
  0.1202710699267271  0.3870349355101777  0.8763142628287117
  0.3740772863073477  0.3836835194087710  0.8776670680949940
  0.6108354045578901  0.3722015469930195  0.8781147685617162
  0.8777496383333027  0.3593408045227057  0.8789497809128656
  0.1270312842246778  0.6260496485790061  0.8793620158437201
  0.3766587457068516  0.6093201603151467  0.8817297412017351
  0.6225980761215382  0.6377088219517576  0.8749324673257172
  0.8601469512762950  0.6195843887295029  0.8920612142382113
  0.1181022620207413  0.8583831278368677  0.9067436539458557
  0.3887773197549371  0.8701713021360473  0.8722869424238476
  0.6141631224389802  0.8901972954249537  0.8762585826049880
  0.8833701203071690  0.8796656037964414  0.8688302531961970
