generated by phonopy
   1.0
    15.9923497217343744   -0.0000000000015236   -0.0000000000010772
     7.9961748610645493   13.8497811253384029    0.0000000000003944
     7.9961748610645493    4.6165937083140518   13.0576988688087816
Na Cl
  64   64
Direct
  0.9996603712761566  0.9836489498536612  0.0164787306416417
  0.2389015242040099  0.0140372857841141  0.9941374663538743
  0.4866396991779095  0.0031508221165893  0.0152545534179777
  0.7603430983679588  0.0040743475046859  0.0137174788280609
  0.9996894983451944  0.2450564993237568  0.0056209724698620
  0.2662333683764944  0.2414176075009344  0.0008213040907586
  0.4904132515844525  0.2469229563312894  0.0096112321143936
  0.7357287547892083  0.2510621709443462  0.0105388467964471
  0.0281490693885307  0.4903799084582388  0.9989623318048272
  0.2516031478724117  0.4792569917955279  0.0109478895666052
  0.5024568389543840  0.4940398576027461  0.9953726970295114
  0.7444356777643268  0.5027222121268888  0.9905011294316209
  0.0034157710618719  0.7570639716579977  0.9886572000139759
  0.2502457615066822  0.7381086752585010  0.0039280311976936
  0.5040958684990950  0.7515834921298484  0.0019868969348437
  0.7388402011411127  0.7304473386978663  0.0222140468840389
  0.0014596352284977  0.0004925849058012  0.2573124906928245
  0.2658344359160049  0.9821547854762691  0.2493901028782422
  0.4842061137366828  0.0213760907876549  0.2623635405144785
  0.7531946580763988  0.9867221683697218  0.2607180916551514
  0.0050521202619812  0.2436525857101342  0.2422001994012738
  0.2380844748592489  0.2421241683244949  0.2492710432581464
  0.5007861962256123  0.2584217053081369  0.2537441043701611
  0.7470034742877871  0.2570780838294925  0.2440741383818475
  0.0077075385491687  0.4717664148828352  0.2625387353317789
  0.2527853116698170  0.5100422252585128  0.2250242471134590
  0.4841226457454165  0.4816078051131236  0.2587965039203238
  0.7435493450823247  0.4988212338967200  0.2486395046191727
  0.9947999837069270  0.7504440840116589  0.2518547151206846
  0.2416089790554632  0.7432079277761620  0.2603217787277319
  0.4878657613471147  0.7563895448751973  0.2335521747461680
  0.7528047118037932  0.7527948875523973  0.2465540755062405
  0.9998360030875922  0.0076575356545850  0.4968622386947646
  0.2429840523667315  0.0096855883562086  0.4829549893509426
  0.5144058640081376  0.0265955873992528  0.4761773643122505
  0.7391942775238104  0.0006256068066494  0.5064690943907899
  0.9976881268827609  0.2427685326006386  0.5078107735976373
  0.2373417036652908  0.2463531303693083  0.5218754022554019
  0.4912140436663101  0.2400190671809600  0.5167378020560895
  0.7434998837782083  0.2555365898769134  0.5032020735434531
  0.9929076476452823  0.4855957455120303  0.5267626576299050
  0.2646401761986241  0.4779565012596542  0.5144217341260247
  0.4864956532961546  0.5169223641150007  0.4849575687844490
  0.7648038457359578  0.4962553592585983  0.4840999345726990
  0.9956331684429196  0.7584261934179737  0.5043460698755404
  0.2566086749132969  0.7512946567146910  0.4943452383850357
  0.4823754300291710  0.7740164666086020  0.5065217614761417
  0.7513956592696984  0.7491351563194802  0.5125409252527290
  0.0103295258245616  0.9989965018579893  0.7447418605717445
  0.2664863547727538  0.0009731882380431  0.7297099202073196
  0.4996221973458351  0.0107051240503080  0.7472468337192073
  0.7334494702600363  0.0158611965486602  0.7499905061195881
  0.0073755017933702  0.2659151829927244  0.7405985130138603
  0.2498563184805243  0.2592799661989800  0.7434201360067717
  0.5104772291459614  0.2608698441671887  0.7400127953182918
  0.7473462407042742  0.2686332605458575  0.7357828505944441
  0.0106299791982724  0.5056965023297477  0.7401542340846538
  0.2578915585860848  0.4986731589539473  0.7546538718811684
  0.5212696158918423  0.4917927959936744  0.7280083367926995
  0.7464279317562780  0.4877988669781606  0.7547895088975987
  0.9960429410089099  0.7370593950297069  0.7741415721690013
  0.2466408062933680  0.7427541007855256  0.7409529076133208
  0.5004299115436626  0.7593458150057996  0.7405944270253415
  0.7655991308460182  0.7243297050616357  0.7512881712158148
  0.1358317472554142  0.1197070038183204  0.1213009402154556
  0.3864904054814361  0.1091841842535323  0.1138553599012211
  0.6288672600207625  0.1147242345690185  0.1216149827540278
  0.8792282947308473  0.1183452760532348  0.1347549920372001
  0.1190729592509815  0.3717823661191315  0.1267532347087348
  0.3790819473054069  0.3796395833889083  0.1181574841457444
  0.6287582427704120  0.3675250520196737  0.1444391876616909
  0.8654428074105153  0.3812270160386000  0.1272790133035653
  0.1335544146617463  0.6248868180505269  0.1208893934150502
  0.3765439703939073  0.6201649825880259  0.1331580985981955
  0.6212326858848467  0.6273252662775876  0.1235344585959603
  0.8839925705493382  0.6217468063904967  0.1272033009804994
  0.1265513597405757  0.8842175565129082  0.1253205884436703
  0.3698944147442514  0.8818205756651296  0.1232976552768769
  0.6219838564670220  0.8669056454806557  0.1152381631760015
  0.8722046217278152  0.8861279108142736  0.1203493257001272
  0.1198580281814660  0.1250534451749324  0.3868449343672362
  0.3622966852726285  0.1211871200815050  0.3669466090656822
  0.6313801283924849  0.1370845304928538  0.3752304114730415
  0.8864008417747540  0.1353729450630952  0.3584279711940501
  0.1131468059228290  0.3800029591939252  0.3810265386406532
  0.3746445815540087  0.3499014063574303  0.3856001417595268
  0.6251299226248482  0.3702265800176638  0.3849367086878672
  0.8712632741182820  0.3878709453661952  0.3656217610959979
  0.1317399994464435  0.6215190739471013  0.3715992219420106
  0.3772957391038633  0.6310300957565329  0.3738936995652343
  0.6239347503642878  0.6403868029539589  0.3708983970256935
  0.8766177415202184  0.6281427613321890  0.3570585219864767
  0.1313428407423723  0.8767553695563048  0.3645676342583417
  0.3659709743910353  0.8997900772761316  0.3743126731533149
  0.6363250216195664  0.8627600976852816  0.3704735263993034
  0.8662979198657345  0.8749884429377512  0.3748259688635023
  0.1306074286451004  0.1245006497865371  0.6240521470219672
  0.3748190972679394  0.1256366637535073  0.6140538039418333
  0.6405253115531896  0.1277087285952407  0.6201091476318358
  0.8700828797731207  0.1252469717261481  0.6207421722987858
  0.1304669710846054  0.3768116622482488  0.6203759918962478
  0.3730157573602754  0.3571352919846614  0.6408946448308881
  0.6467328581534101  0.3586800477868939  0.6156363236709158
  0.8811975793775662  0.3872554656006466  0.6176453096787937
  0.1212960521479544  0.6216939501685302  0.6310356749132637
  0.3761452522193000  0.6094194825093622  0.6315992006871121
  0.6122883685737711  0.6322173274344025  0.6265583815279504
  0.8729238957351007  0.6349088755522153  0.6206539900363136
  0.1220062530078148  0.8675361157875002  0.6481224703724293
  0.3634910165286865  0.8800851862584811  0.6304531456695639
  0.6379129975539304  0.8799133989926414  0.6150253802313995
  0.8648184976870323  0.8846328766613240  0.6271324559250681
  0.1224214671867684  0.1271926104512879  0.8821218306286618
  0.3547026467976154  0.1236247724409818  0.8842886079158122
  0.6137548626148019  0.1307119073548033  0.8902889177168898
  0.8929096029544776  0.1050089654513499  0.8757018418487347
  0.1327380318437656  0.3734514571943059  0.8816684599327956
  0.3624847450195534  0.3745597199414295  0.8905992325968964
  0.6218867617347773  0.3657598374188795  0.8890008105497043
  0.8769618783578734  0.3766851744919269  0.8743630229337024
  0.1227876535497359  0.6332530837133211  0.8639469211923195
  0.3689758092462174  0.6178971761916618  0.8937251992549233
  0.6260898402104444  0.6074998197499877  0.8726601904282267
  0.8833538035544791  0.6280501159458859  0.8768112938610485
  0.1458087158882655  0.8806311311627474  0.8834462535094716
  0.3743522950834008  0.8773783646853029  0.8692613806173235
  0.6323506000076635  0.8566864442625118  0.8868220879798232
  0.8735414220204746  0.8770461456314228  0.8805532726441783
