generated by phonopy
   1.0
    15.9923497217343744   -0.0000000000015236   -0.0000000000010772
     7.9961748610645493   13.8497811253384029    0.0000000000003944
     7.9961748610645493    4.6165937083140518   13.0576988688087816
Na Cl
  64   64
Direct
  0.0043784901348039  0.0176740163657897  0.9954343169430789
  0.2529653291332386  0.0059122167841490  0.9821139296112591
  0.4953097454164136  0.9861781669011876  0.0058735950863446
  0.7612699127452544  0.9944028452263767  0.9873835504333116
  0.9970368211577223  0.2551680143433965  0.9981362624392298
  0.2470540496679995  0.2689440103757572  0.9924033239842427
  0.5078389917747936  0.2508484467251402  0.9831714354775452
  0.7551528435216621  0.2578659101272566  0.9812033253313432
  0.0065632199318138  0.4917645735658697  0.0098368167959619
  0.2631496217075917  0.4885310552677160  0.0070701090094430
  0.4944275306924455  0.4806502676062956  0.0192097127036653
  0.7470218490966928  0.4614941873090426  0.0214395132682681
  0.9943497533828077  0.7267650160173921  0.0109211175262076
  0.2479851788695350  0.7579136460790197  0.9847906885914640
  0.4829405691956226  0.7439893641949525  0.9909356455813902
  0.7500618495795554  0.7610001659518277  0.9923585994991102
  0.9887056618931978  0.0016394255195325  0.2468407520211657
  0.2638242226856697  0.9956160788174744  0.2535421121212538
  0.5041427623543739  0.0175358570804795  0.2388615428046666
  0.7360665173274382  0.0290052681875448  0.2375556389635655
  0.9965704703022999  0.2402882345890951  0.2493779182333840
  0.2583772053238511  0.2627408087561022  0.2478059845011599
  0.4892973050194114  0.2455621180453336  0.2744403234903821
  0.7328660026767178  0.2513950777671408  0.2684855929169035
  0.9971423492596964  0.4957491881616045  0.2462757863657345
  0.2416554567584414  0.4977071206612542  0.2653964178438057
  0.4907429321286514  0.5048093980205890  0.2492146984407731
  0.7528923624067891  0.4964331231406131  0.2530962840426493
  0.0073617533715162  0.7409774074844221  0.2482389362382758
  0.2606867920190825  0.7240782844017661  0.2657155631606685
  0.4981078466434096  0.7443374503136252  0.2481981923253248
  0.7547746931376746  0.7507550896649180  0.2497469900605067
  0.9962344328097482  0.9917711339399305  0.5093220843780919
  0.2337903812768657  0.0209497964682931  0.5075718268606120
  0.5006014296813860  0.0143601647630297  0.5000549595652365
  0.7521871382851163  0.0068018963066402  0.5070419898081883
  0.9863124909635966  0.2504066690556804  0.4992763038043190
  0.2689845468768901  0.2422138287505875  0.4982256486446973
  0.5010426344975457  0.2524959348775233  0.5005912197079151
  0.7797005992521675  0.2543623461636536  0.4805192072637683
  0.9873699166466879  0.4908127609401824  0.5087986310764747
  0.2547140150831789  0.4992527987436158  0.5047749543109313
  0.4954402040665739  0.4978399000982874  0.4886469590808758
  0.7548373983026977  0.5054272355542372  0.4898348856380744
  0.9882419549592149  0.7475336905281337  0.4926933818101535
  0.2479218729703808  0.7370247064215305  0.5049028741098348
  0.4996417481291409  0.7387242885301090  0.5176372376250360
  0.7723767192022047  0.7427346863232256  0.4871680560493242
  0.0063996544097481  0.0035017347247516  0.7532902974589305
  0.2215611057001979  0.0052345300478949  0.7592204499070836
  0.5087249331068912  0.9956700877342671  0.7346406795768775
  0.7482727867604532  0.9934147169564681  0.7597348182891119
  0.0095139952633306  0.2434796213165107  0.7483413432869180
  0.2430595584586449  0.2538794885456206  0.7650277499581016
  0.5084020835229529  0.2465581156212999  0.7450292543171648
  0.7585482261523682  0.2380245184256418  0.7384876848405442
  0.0058418628969338  0.5053868947821593  0.7501129496807271
  0.2407067741373855  0.5058613618377320  0.7524650336224914
  0.5070592136306471  0.4891712808691059  0.7518448758823099
  0.7555300967612909  0.4954355754074921  0.7440609994267288
  0.0072115634826183  0.7452469198331402  0.7509861283085827
  0.2623524564246724  0.7224894437251496  0.7469945682915010
  0.5024105358831505  0.7461036184047559  0.7541641449598538
  0.7609277736998065  0.7612348562426300  0.7529330068345117
  0.1299624171799362  0.1392443400215159  0.1188331740417802
  0.3557082249841084  0.1155103160721177  0.1379734740112936
  0.6220080795607673  0.1339941604444918  0.1162557985585954
  0.8691704327504224  0.1203021768372150  0.1255244325038290
  0.1136232369273819  0.3809133896768830  0.1398616252250785
  0.3491880834806623  0.3880320472413057  0.1247760042485856
  0.6276644352462648  0.3806983400765532  0.1165537961317814
  0.8798079638175589  0.3782994600571740  0.1409645705246359
  0.1273551457516667  0.6091603416530478  0.1363653279847237
  0.3648488132485795  0.6399563962272359  0.1134598572103168
  0.6172442372453837  0.6268761935509213  0.1299464351637996
  0.8676513003844235  0.6267823387769401  0.1265553081924312
  0.1376651544284354  0.8769020714419170  0.1276626069441461
  0.3854349837667162  0.8853027722452700  0.1091362845216653
  0.6292571258006692  0.8675537088488900  0.1244576777092504
  0.8783645792045276  0.8832020332103111  0.0972291251311234
  0.1290366027254873  0.1168775172476485  0.3840609143369477
  0.3667970899721680  0.1452564202366260  0.3609839273331475
  0.6372115460042768  0.1368550450166283  0.3805066378267519
  0.8667277693004887  0.1363143430513961  0.3727206484797458
  0.1420230661592725  0.3732245055145124  0.3803057505236287
  0.3775583054908280  0.3737885136944178  0.3654897558791657
  0.6191242142187267  0.3661457560513073  0.3872419091780064
  0.8853135665359662  0.3596369084203724  0.3731713569495394
  0.1403062194979403  0.6187514985182585  0.3665504770150098
  0.3789151497217944  0.6200643795600630  0.3716092751512976
  0.6281518497969578  0.6234287629092253  0.3754601184825199
  0.8863625849462349  0.6158585258588406  0.3730143459508568
  0.1276629907588023  0.8821213935368299  0.3667647646030582
  0.3557951869647721  0.8662990277511695  0.3849439642988138
  0.6315804589224971  0.8767829501150184  0.3768433300138004
  0.8754909613717523  0.8703812942222520  0.3769693563127879
  0.1203909336610401  0.1272588860665297  0.6179099774310982
  0.3838557126830333  0.1188042603142361  0.6203809286331092
  0.6134774290512727  0.1385440674666231  0.6240816476194206
  0.8744084867485631  0.1306147933326408  0.6027247996589786
  0.1159056978582814  0.3652928969955243  0.6319312755528930
  0.3702461566594145  0.3763272055859926  0.6181222924926422
  0.6339480018089637  0.3734974761791944  0.6178778829356124
  0.8581097152384402  0.3675335107958736  0.6460813795984574
  0.1380552072588132  0.6005282589428662  0.6394570650028657
  0.3735999087899403  0.6198800410662219  0.6268673227147090
  0.6593303181371858  0.6123650191018735  0.6199986325121377
  0.8811373051562154  0.6217882376524426  0.6117384754952355
  0.1429694092970816  0.8706458354426486  0.6126256981751655
  0.3737075099988655  0.8888076364164960  0.6129419369111676
  0.6228480130923182  0.8777371211657403  0.6313480827140753
  0.8813071089223847  0.8769200042784355  0.6185642896360541
  0.1236687626734235  0.1232985670176956  0.8798540145655209
  0.3831372462685795  0.1334684690793667  0.8674539683312508
  0.6258477366423685  0.1185495187139593  0.8837874007418829
  0.8832577207041782  0.1271010646039977  0.8722510592167606
  0.1321020373777946  0.3714602439110962  0.8749723004915453
  0.3589609010496917  0.3794287679410178  0.8894942742590084
  0.6339392505415727  0.3841171471368095  0.8642856183151538
  0.8920431588455517  0.3840331253325865  0.8486514713714561
  0.1155205194451950  0.6271447389470094  0.8921815252315165
  0.3559050298010091  0.6280462435244538  0.8859695514110536
  0.6139527829562839  0.6149760847752479  0.8838488817170052
  0.8797550368168106  0.6266736696362678  0.8791669916288551
  0.1195930990265162  0.8518359992536879  0.8930788461972725
  0.3774583788607432  0.8570381008452089  0.8694079700914581
  0.6342026688143908  0.8827146788929484  0.8606457471640373
  0.8775224280793004  0.8690188138321074  0.8802201981063003
