generated by phonopy
   1.0
    15.9923497217343744   -0.0000000000015236   -0.0000000000010772
     7.9961748610645493   13.8497811253384029    0.0000000000003944
     7.9961748610645493    4.6165937083140518   13.0576988688087816
Na Cl
  64   64
Direct
  0.9915701737868212  0.9793252926807378  0.0155334459564538
  0.2433397909650145  0.0188163095083931  0.9962940432197523
  0.5134260081417604  0.9931627119725031  0.9867799995461282
  0.7431105120868537  0.0117579323430237  0.9940646300851468
  0.0139954316344187  0.2368413679847801  0.0061314699754600
  0.2577862038533457  0.2324456548274163  0.0100547715601339
  0.5098742017017883  0.2597041204970664  0.9897308387163698
  0.7480466255946833  0.2483029881072850  0.0062510757206404
  0.0069310864965447  0.4870363554136069  0.0045739543164614
  0.2406792775025838  0.4939262853827417  0.0193228764979496
  0.5009950431370613  0.4903572682234859  0.0018214078380743
  0.7373445397950908  0.5291994590400306  0.9936223773178194
  0.0005672390479449  0.7517590824680012  0.9881943757979618
  0.2666211632524177  0.7407540064604244  0.9945044144840453
  0.4928204391405464  0.7519996647056160  0.0041312319543073
  0.7315750010790165  0.7455043363523873  0.0110439071585452
  0.9988885007146959  0.9885161177195205  0.2547817212123183
  0.2325954739216037  0.9965965409218034  0.2570472352337489
  0.4931311378572020  0.9914768476661326  0.2528566588751899
  0.7575893323266739  0.9987668266649767  0.2542572394238562
  0.9974527639047241  0.2467695739568864  0.2466008116032321
  0.2518867342789842  0.2559332753005274  0.2476364599130067
  0.5106020368226539  0.2322071434108186  0.2535178078786983
  0.7579323394519571  0.2665780770042971  0.2354860312877435
  0.9899596776916963  0.5126041236755777  0.2490021395237138
  0.2547210230170603  0.4954219840418599  0.2509453184925918
  0.5123524449191680  0.5032201074541903  0.2436926579179881
  0.7438410674480217  0.4873367530716148  0.2776074718458429
  0.9887429544909494  0.7452681083796139  0.2616916638653740
  0.2528834567822446  0.7425779625153764  0.2516941673254898
  0.5041793023648456  0.7504796130569680  0.2380051410653622
  0.7440537068106345  0.7506357297752471  0.2667535354798301
  0.9866332013680376  0.0027006042207835  0.5086121705480605
  0.2555048848778707  0.0002186499432234  0.5027850490877251
  0.4931207555761575  0.0064981982735327  0.5114745798201633
  0.7262375987129390  0.0040744174100826  0.5226553861382204
  0.9878580394038784  0.2532916865460926  0.5128647756472762
  0.2352742611396339  0.2557395448601011  0.5074887918823777
  0.5015687864525226  0.2534677617526694  0.5035139295846096
  0.7506570527943750  0.2434499541524505  0.5170391358637215
  0.9829569631066913  0.5051407384033961  0.5149622189415723
  0.2638166705163588  0.5070937036761786  0.4922076649890097
  0.5001087617428938  0.4772268885759272  0.5162005330806861
  0.7536688970727575  0.4957216983560143  0.5110807843318389
  0.0065907665504022  0.7553021021825065  0.4885088160371348
  0.2519560598905251  0.7505999202778688  0.5194418466068791
  0.5053045573708129  0.7713149833536936  0.4825744463649677
  0.7357759013181181  0.7375761240040551  0.5266869039391272
  0.9924389061080311  0.9946136362963806  0.7569106624512011
  0.2322570139917312  0.9964080369276348  0.7615668075593275
  0.4874226877918083  0.0097130293915471  0.7562802191293202
  0.7799929856933618  0.9862418185383800  0.7401920766946987
  0.9861229331249730  0.2628193514291820  0.7453826463915811
  0.2558061598410953  0.2387829153576430  0.7590978325926548
  0.5048282550833936  0.2412822076590176  0.7385860350007116
  0.7581743210240028  0.2364141461067660  0.7505572848842845
  0.9994821984048152  0.5059751592630182  0.7510029831538675
  0.2394200963983100  0.5142519759517399  0.7479500485479519
  0.5170088224764696  0.4950268076949059  0.7400947478890119
  0.7549428130368596  0.4801825339728663  0.7485763365547407
  0.0000270904204744  0.7585378204613140  0.7359711598315304
  0.2599320709803186  0.7491929816411026  0.7329645375888812
  0.5052873820652226  0.7462572722040816  0.7421830235282978
  0.7489538155870084  0.7346645500439772  0.7724866104482588
  0.1267858938869581  0.1357509786521647  0.1251850957149572
  0.3735002584553841  0.1323150026153072  0.1238960726452853
  0.6244249272096971  0.1338157642119752  0.1229764542701501
  0.8706651278939278  0.1297211497526563  0.1355205970747927
  0.1176519560322644  0.3695558612856796  0.1273545553057884
  0.3713339801506399  0.3657205816141120  0.1323566948007016
  0.6336054761063903  0.3679231238970682  0.1332276254501658
  0.8864933685159863  0.3588405561002080  0.1223424804282387
  0.1341537003793432  0.6056705446589022  0.1288212317541892
  0.3823085264067692  0.6099631973751166  0.1189957725341891
  0.6331831024148129  0.6261259306370341  0.1154636228985570
  0.8848375555009133  0.6344518459967193  0.1213526421493518
  0.1218277747129143  0.8680703242889400  0.1226739058209804
  0.3711870493723064  0.8736742584543878  0.1193556596242892
  0.6438115812301504  0.8750409551939975  0.1277130724114717
  0.8689925504073873  0.8803101529671176  0.1266246715706247
  0.1080565049377318  0.1326661145777204  0.3801159406372168
  0.3828262056100996  0.1183558349727951  0.3694503563024746
  0.6317361429377322  0.1135678767670834  0.3703539009687971
  0.8703485926705983  0.1156320153098802  0.3721496883579166
  0.1111287034753691  0.3672722832213086  0.3830181576282103
  0.3737685003812459  0.3772291363103004  0.3736469746289741
  0.6325899802318746  0.3774662939647883  0.3506760972264644
  0.8701764288234457  0.3695867240334844  0.3807607913337790
  0.1349061865874891  0.6118870266158718  0.3846034036319946
  0.3621036083529927  0.6364351542254377  0.3675518237906701
  0.6143426042610406  0.6405106714991051  0.3752116613982401
  0.8664258688613936  0.6365655745239860  0.3862073398522121
  0.1315430655280615  0.8556484305573941  0.3893468568600985
  0.3718453971106994  0.8760862972025237  0.3763283937529758
  0.6081516045864578  0.8719757865634299  0.3830749477903726
  0.8591049699280328  0.8758738399424775  0.3939789105554006
  0.1321190991308507  0.1296140822842875  0.6145285317875744
  0.3885734603227839  0.1212528018647264  0.6115800308914492
  0.6141776525198083  0.1139916101353368  0.6349923879130587
  0.8750588952751764  0.1310685167669983  0.6142581741208006
  0.1180940745889724  0.3781126046440259  0.6384498451536320
  0.3897580311828205  0.3645833765051676  0.6194983234454424
  0.6191016293335602  0.3619352262341219  0.6260381169634995
  0.8863031274148884  0.3648000139107789  0.6205521153472998
  0.1245298195136738  0.6144044724978603  0.6351096998900746
  0.3749973840607657  0.6221859229221872  0.6246630263058702
  0.6169369698134709  0.6252835604759652  0.6272328780368922
  0.8618985422561168  0.6069674318547901  0.6463792887303336
  0.1254527546950929  0.8801169836377007  0.6259506627727141
  0.3792842900367622  0.8763762520775970  0.6145717984175662
  0.6329398384849300  0.8860525331672070  0.6189749905381240
  0.8747113097100023  0.8703439366299833  0.6148959569302263
  0.1138023194815908  0.1393973962463781  0.8685310026093541
  0.3676406876268170  0.1374551279289813  0.8767182727177439
  0.6137423075044076  0.1350331104678884  0.8698663545537122
  0.8686535999353817  0.1229644274726523  0.8779332675937277
  0.1121799407003080  0.4052669364290632  0.8642558609526027
  0.3882099206859235  0.3614928494959294  0.8769092386176643
  0.6223439648349103  0.3720703491902373  0.8801399692852405
  0.8807688543884745  0.3601487964294268  0.8837447765952140
  0.1215711722402388  0.6313497165920379  0.8691713228284915
  0.3795960971208874  0.6201916747793524  0.8740171504390130
  0.6400534025596533  0.6230504376332613  0.8711091030259880
  0.8654876457731033  0.6207738751846701  0.8822513874476823
  0.1142299542193327  0.8766999234483247  0.8735053566976354
  0.3794852721847203  0.8692518479798492  0.8768449454941792
  0.6111015021547038  0.8635780283623935  0.8877623925633763
  0.8716574102407944  0.8674950921505415  0.8885032020812031
