generated by phonopy
   1.0
    15.9923497217343744   -0.0000000000015236   -0.0000000000010772
     7.9961748610645493   13.8497811253384029    0.0000000000003944
     7.9961748610645493    4.6165937083140518   13.0576988688087816
Na Cl
  64   64
Direct
  0.9748277711524362  0.0003088515351939  0.0115490816384620
  0.2582920934835468  0.9923211231988111  0.0006917558305734
  0.5116631093316498  0.0151921512374291  0.9671580875734256
  0.7416282826175632  0.0109997597236091  0.0068672526033454
  0.0013438521038359  0.2526613539986048  0.0072224249157455
  0.2357745242068108  0.2529572944266780  0.0126721778625427
  0.4952812619131424  0.2388828977369988  0.0132143721630275
  0.7406819176819699  0.2597943467015871  0.0084484246009802
  0.0142976893629188  0.4928201511633090  0.9854165403828882
  0.2504523251658786  0.4977782187292391  0.9892597238407864
  0.4793547804594860  0.5001036411375734  0.0147807156912268
  0.7513337486781779  0.5106637191274909  0.9807248703976255
  0.0047737608767036  0.7506118167450129  0.9958562527444549
  0.2470879534483164  0.7406644117902725  0.0059722904529156
  0.5087830444007618  0.7431256325561882  0.9955346912680668
  0.7382644103344556  0.7474908856466229  0.0059331708644744
  0.0015939779440114  0.0209289543144492  0.2476364048511585
  0.2616489453620742  0.0015916107388333  0.2462661123129028
  0.4856888580047671  0.9999617254992639  0.2676877210659160
  0.7489985921028073  0.9967836614580302  0.2416037061306213
  0.9888047292886981  0.2581423435165557  0.2560190308293245
  0.2390334236329118  0.2503113249770973  0.2649085961194837
  0.5000908745243861  0.2462930046292699  0.2620353787487207
  0.7515479886415516  0.2580219488198909  0.2336449525332226
  0.9927570585914487  0.5137905159733235  0.2490204533653188
  0.2479384222191647  0.4925720937150631  0.2499712185075131
  0.5088649354879741  0.5008447071683625  0.2357606923374811
  0.7330984408288305  0.4888797145021773  0.2587490953840817
  0.0126584173754084  0.7358075979254861  0.2529232469080210
  0.2444407583849831  0.7708843146593842  0.2356334783572876
  0.4831103654253943  0.7602977236534162  0.2451210461262575
  0.7441633399581831  0.7446662671787413  0.2529039601406816
  0.0071355050572933  0.0085976020501994  0.5032025348647385
  0.2561324593440015  0.0047412576684633  0.5042716108514237
  0.4894589484297604  0.0133268293637784  0.4934401739546536
  0.7346318057594869  0.0029990383221837  0.5040915246590971
  0.9963856936965111  0.2521750947668835  0.5039942426417185
  0.2695440733622262  0.2294473501279196  0.4906241729761107
  0.5063892941437269  0.2536995420606624  0.4879480285203603
  0.7424490314430789  0.2626668206882536  0.4991346985685886
  0.0213482765460946  0.4990099296631156  0.5005631171250710
  0.2535938323702183  0.4973986830222399  0.5127639046244826
  0.4929196776984339  0.5116186459290172  0.4950322185275182
  0.7440257325921439  0.5197349864089896  0.4990362534766599
  0.0046785754077271  0.7542659817442369  0.5045570363497562
  0.2388657708697836  0.7504404811209601  0.5027131945175358
  0.4914773920562975  0.7412447771926114  0.5003580748634695
  0.7592122459099220  0.7515088546652470  0.4855149167901536
  0.9994324161922314  0.9963474942089239  0.7447952032345867
  0.2477987921043796  0.9963776659772013  0.7490105979364781
  0.5188516278677082  0.9971243602528757  0.7344211157514553
  0.7601476240418019  0.9766506539840089  0.7569473604595189
  0.0248784682586437  0.2388172231211572  0.7492702164032253
  0.2446778096089111  0.2542035918832460  0.7483111793796366
  0.4994920210458063  0.2625867890086829  0.7441419825665723
  0.7520846619975162  0.2573950251501200  0.7385581160762303
  0.0073940991170463  0.4907988150805300  0.7601147381917953
  0.2457008239774186  0.4969629856378113  0.7564273101512706
  0.5028990047422776  0.5024512458272254  0.7488469479196896
  0.7475865907589215  0.5104979473897503  0.7360697998509588
  0.9978209152172411  0.7342586960004835  0.7473978515353178
  0.2557379377300835  0.7572195910461426  0.7631602198342571
  0.5086842500206432  0.7552589485538325  0.7188998313309983
  0.7748034362657483  0.7496521503685672  0.7457306689373129
  0.1390073283661745  0.1148537751574521  0.1373746247782660
  0.3721511775263403  0.1390845464791147  0.1213440647687609
  0.6355669310249414  0.1240828728192689  0.1254874931719887
  0.8819000421936042  0.1143554577496185  0.1221768258606307
  0.1242026711650450  0.3640188198648053  0.1282178103907293
  0.3824818614808708  0.3718076124055776  0.1251765889804309
  0.6276466394530895  0.3628774808892731  0.1171483254347645
  0.8677713193057547  0.3891477518831096  0.1281748655729863
  0.1365950531526899  0.6214863867033734  0.1236432659424968
  0.3717830448351064  0.6196951340991814  0.1322966328806608
  0.6169231468843717  0.6176006842945592  0.1342754900724901
  0.8795079455229262  0.6209948706575098  0.1191841696419950
  0.1219697400001277  0.8833594321441814  0.1219272410604952
  0.3758992760879865  0.8595561065506786  0.1263639324668960
  0.6151510728384765  0.8779102345091638  0.1209919294168266
  0.8855604107536422  0.8657003111671112  0.1271950755107351
  0.1196933388519685  0.1414503266455734  0.3795915230400282
  0.3740855591867058  0.1316542698729477  0.3731980997472436
  0.6338450312957797  0.1083375396898293  0.3741226371709794
  0.8735628110862320  0.1177546176027872  0.3741243805346383
  0.1135521115107173  0.3727134681908779  0.3813128551138600
  0.3691741682155214  0.3662812210571759  0.3817815198798643
  0.6291099248221050  0.3793588724280165  0.3647115231342825
  0.8763442610012164  0.3695851826832591  0.3797174240947106
  0.1270807672711445  0.6398591324058606  0.3747132871456803
  0.3731651285474258  0.6261541799964644  0.3778925483587564
  0.6037950218966501  0.6285732008924998  0.3700707321503374
  0.8836212391591813  0.6070605069945331  0.3739515321223535
  0.1232235483850963  0.8935186025804706  0.3715780799042251
  0.3868973997320439  0.8647422252370227  0.3706570823439225
  0.6163840300372764  0.8758047085771561  0.3957109531571591
  0.8584850259431582  0.8662147485448076  0.3870850439648371
  0.1320891430120372  0.1396640471886658  0.6062186330956180
  0.3900816243982264  0.1142104339042289  0.6144556744070508
  0.6178592150141098  0.1210612655761851  0.6243740144767577
  0.8886045825433824  0.1247749053160546  0.6168277422333820
  0.1160783424401741  0.3844885938284675  0.6326900055624650
  0.3659956910771295  0.3749022331032073  0.6297931732207741
  0.6351362594315956  0.3768711050103116  0.6119892688030757
  0.8699883789344460  0.3781835794407887  0.6196863570879925
  0.1338634963967175  0.6269058543558905  0.6239313164359667
  0.3742886529952088  0.6182796991938132  0.6227266791785527
  0.6188972811260199  0.6221497051791296  0.6272960267012967
  0.8692663096927129  0.6177964743275699  0.6179460340972699
  0.1391805516325908  0.8527137444407916  0.6164062600503388
  0.3649344661160628  0.8810242668025695  0.6268442977329062
  0.6206170056336587  0.8729649122654497  0.6301867986735493
  0.8748445508982682  0.8691506478662911  0.6335930381250747
  0.1265564970160893  0.1367233669375907  0.8814416889964967
  0.3759571780170096  0.1171571676014447  0.8658411839859151
  0.6288483361000392  0.1356051618280200  0.8682271142743402
  0.8794683445372302  0.1398781757612282  0.8664121331239047
  0.1331245374262951  0.3732767988987416  0.8612258057569495
  0.3780423599789136  0.3634163253741777  0.8797473112662790
  0.6298429676374993  0.3594214034196936  0.8799437984715873
  0.8836557861390831  0.3694536527950616  0.8721623394593601
  0.1410753977534203  0.6298861289867197  0.8738135386442786
  0.3843739493292838  0.6300135321625188  0.8826464216849372
  0.6251130585487774  0.6334314005501456  0.8671735426198733
  0.8750467659818877  0.6290510279938374  0.8801954824690056
  0.1372868495255856  0.8726193476105860  0.8596919196189011
  0.3723433199880892  0.8851912030151202  0.8780883297453519
  0.6317951697628934  0.8842362104412318  0.8616316304046022
  0.8773430293414807  0.8903071966174254  0.8670067651329245
