generated by phonopy
   1.0
    15.9923497217343744   -0.0000000000015236   -0.0000000000010772
     7.9961748610645493   13.8497811253384029    0.0000000000003944
     7.9961748610645493    4.6165937083140518   13.0576988688087816
Na Cl
  64   64
Direct
  0.9976370398242972  0.9878510721703261  0.9969027028764107
  0.2718234286022039  0.9853906924113909  0.9975364596091748
  0.4890792675383034  0.0155049185700105  0.9997418155841309
  0.7746344229394434  0.9976940803723080  0.9845379278924224
  0.9961677300562140  0.2375820754138572  0.0122491031653325
  0.2518979698720762  0.2714265384422732  0.9955685403250234
  0.5035974081131928  0.2706910662677179  0.9809596678107406
  0.7545461977132855  0.2337180313892356  0.0025929431507932
  0.9997931409657819  0.4942234939874579  0.0025655993801210
  0.2620092514069304  0.5037043750409942  0.9896126525968597
  0.5105125998608431  0.4940317209581599  0.9992174608765610
  0.7481757698888832  0.4905912273318175  0.0160372921049554
  0.9829427444369599  0.7505125313342357  0.0190605264785529
  0.2439877857921378  0.7483721547526813  0.0043045366952231
  0.5013484178098123  0.7572157232657565  0.9968629987194411
  0.7504105142774373  0.7437706506049852  0.9978534990243263
  0.9984977745242544  0.0014210508506720  0.2533773374020314
  0.2596555784326811  0.9852978120544224  0.2498125581296655
  0.4923765085477150  0.9963187351990004  0.2505623289632176
  0.7502611034747004  0.9816310625410708  0.2570466577975855
  0.9993306735501384  0.2387384308779923  0.2537426137061476
  0.2540092242097865  0.2381584592596540  0.2585484694107656
  0.4944499991199669  0.2596324386472665  0.2440773325396081
  0.7547762996535076  0.2522505272088870  0.2354083387352173
  0.9979984761330086  0.5117072702565938  0.2410111419364858
  0.2467161971295161  0.4846119268790485  0.2694448638820203
  0.5075765218177464  0.4937660012789237  0.2468210607061606
  0.7635579498156662  0.5091177042369599  0.2167600172315911
  0.0111618202907164  0.7281922110752328  0.2506557619292031
  0.2284452096748495  0.7651375471195464  0.2572682900084796
  0.5244879480236924  0.7327228233471530  0.2532348056722585
  0.7553850373866434  0.7580260422179513  0.2392119666746069
  0.0140266621126083  0.9919269200953258  0.5048395940672924
  0.2587697285266214  0.0010161874325545  0.4928461724465871
  0.5120004772957902  0.0032103827164668  0.4837643597134001
  0.7721659127752107  0.9838843789843952  0.5113529450601580
  0.9982466639095268  0.2568607036903441  0.5113934888389799
  0.2378468966296450  0.2637414399094666  0.4927871832340452
  0.5044875443392178  0.2496840408453285  0.4908299724807626
  0.7536708044707405  0.2487721714317809  0.5055621869576299
  0.0055709735031842  0.4976397363257712  0.4929865750231497
  0.2485512017731091  0.5135688676958542  0.4962159173048080
  0.5074858984499930  0.4956994331931978  0.5009416826275470
  0.7214829176326041  0.5072629298664277  0.4820937204866448
  0.0018069589843082  0.7556458312883499  0.4687295310269685
  0.2486410365990315  0.7458258941009996  0.4930290314166246
  0.4918789387938841  0.7551615422081646  0.5093972817444996
  0.7492268450359525  0.7390518664623664  0.4971113053999999
  0.9834881344620670  0.9978578052795127  0.7675106330339975
  0.2438326222848597  0.9963825661785746  0.7573602159060141
  0.5212714661844149  0.9933529825386379  0.7562584699847410
  0.7303970747219589  0.9989531438277135  0.7637341172061057
  0.9832888172230683  0.2444457175515656  0.7620066336112276
  0.2333792110078949  0.2564909794149767  0.7589750201367494
  0.5023450112655214  0.2354051180808788  0.7645296427947318
  0.7399237584836407  0.2521045942129874  0.7504083000771228
  0.9931299407650047  0.4836617612112122  0.7558899818346002
  0.2393929366062860  0.5106198961631430  0.7594124559909252
  0.4847946771249225  0.5143674650698440  0.7509814168830887
  0.7396511208588281  0.4978734710396036  0.7573862764218078
  0.9851615825344892  0.7428231006676949  0.7748260645430244
  0.2575105691646187  0.7429427273357330  0.7528162420524402
  0.5032293561595456  0.7666530746900786  0.7378807069952469
  0.7426667713965485  0.7578788110339897  0.7423911955424123
  0.1141467798466948  0.1174890063192637  0.1194320078689044
  0.3790633667802027  0.1280857162061061  0.1061664093579928
  0.6169993141733797  0.1151761657629145  0.1383933454213197
  0.8863547192940039  0.1120807651074575  0.1171402624402459
  0.1230851424569805  0.3872507964391024  0.1333804993926044
  0.3737760594138644  0.3802297194676417  0.1194685809182084
  0.6381384713628209  0.3745968698305193  0.1027729299904286
  0.8729932534971150  0.3692753775510907  0.1320983514579397
  0.1259799010199158  0.6300764103006097  0.1203062596322031
  0.3713338502038834  0.6170532101866456  0.1359675897257422
  0.6197453642749019  0.6133878958558352  0.1455935510270676
  0.8763923168763805  0.6230997216642610  0.1238627182890743
  0.1145688583441287  0.8702783195169383  0.1330141104397507
  0.3895323756379936  0.8686254187314325  0.1203681776785754
  0.6173589556922067  0.8893955319887726  0.1077538818004273
  0.8970138284233862  0.8671411760268209  0.1242847492361834
  0.1188068587746825  0.1334321955535941  0.3682953550184861
  0.3846784745013645  0.1268628288167351  0.3821630448496756
  0.6096316200049352  0.1301778830615965  0.3799113376578981
  0.8720761369499080  0.1172590437380732  0.3881227857660069
  0.1322451785488467  0.3921001376090811  0.3704050240400548
  0.3667461835670148  0.3804913398909202  0.3756092782465603
  0.6246719487142360  0.3856246442065433  0.3609912206029770
  0.8650250598589653  0.3730826666701417  0.3723303979188283
  0.1150189097409008  0.6309064548709715  0.3804181394579186
  0.3725702924840784  0.6155367677651488  0.3823269431440439
  0.6454118717888824  0.6003047009107291  0.3820169917292940
  0.8628630940367721  0.6182159358081741  0.3888460565161911
  0.1268867793056966  0.8577351106704550  0.3664415196035417
  0.3826100294117881  0.8705659635885548  0.3642731406727968
  0.6279329412943119  0.8865499707280849  0.3568246340923807
  0.8562469380880848  0.8774143395955241  0.3847320030025092
  0.1149451990719875  0.1253264664134356  0.6343472154042473
  0.3863708484549380  0.1018282234187663  0.6335210748576655
  0.6360592160613827  0.1396903870191059  0.6105049600104234
  0.8573178199748317  0.1279233471425682  0.6317417121609725
  0.1202215313372294  0.3757171099653509  0.6235319434392239
  0.4011440196198403  0.3729385344936553  0.6375821765620352
  0.6341001363820720  0.3701754617856916  0.6361330274694940
  0.8695723531119578  0.3846420886257127  0.6182765946195899
  0.1181674818500092  0.6298028256843258  0.6343058385653423
  0.3651717852129999  0.6243672984252431  0.6425652110222344
  0.6235107071698597  0.6485050546174227  0.6164860101471438
  0.8761541660871495  0.6293484276421817  0.6216256858642949
  0.1321962987055264  0.8750013482652738  0.6113209241004758
  0.3817771630064142  0.8792474729230360  0.6338065291707465
  0.6281550163845666  0.8755890654099484  0.6172960897518470
  0.8780290547623123  0.8765216880222768  0.6319550588476045
  0.1186625734745568  0.1258961627613396  0.8789513286357878
  0.3878729932863326  0.1151817007065800  0.8834541846979095
  0.6200394026904751  0.1302191640023512  0.8792492999618748
  0.8741032551367438  0.1200080113160352  0.8671648816479813
  0.1276004326104661  0.3843435933704685  0.8906267121677737
  0.3633007393504402  0.3695154723032785  0.8940350485342268
  0.6281412593869640  0.3803794715253671  0.8826033045492878
  0.8695459786096924  0.3622382929064526  0.8883715842943665
  0.1302184453728690  0.6161505785968604  0.8726033049776850
  0.3543743847558201  0.6259765832627887  0.8825485702196372
  0.6170821742504105  0.6165813570563243  0.8941490956004333
  0.8672494628264986  0.6241387277725592  0.8863656497969726
  0.1096767323052296  0.8827475780407699  0.8901912785107354
  0.3881510521950505  0.8703697998890110  0.8683547784493301
  0.6230715533605206  0.8695510649154239  0.8765349304587421
  0.8949470096863987  0.8780051490490219  0.8628297773536940
