generated by phonopy
   1.0
    15.9923497217343744   -0.0000000000015236   -0.0000000000010772
     7.9961748610645493   13.8497811253384029    0.0000000000003944
     7.9961748610645493    4.6165937083140518   13.0576988688087816
Na Cl
  64   64
Direct
  0.0036569482092526  0.9840489305472166  0.9965448796070711
  0.2711720333846922  0.9944979947147402  0.9935175332831510
  0.5137629321156940  0.9974708448550738  0.9888736895053495
  0.7422901513876501  0.0010437033038208  0.0015875085321955
  0.0047717396376331  0.2571393337388036  0.9874409288728316
  0.2570950546666135  0.2474965285697695  0.0117863930671382
  0.4976526658189934  0.2467000064431688  0.9993113268483437
  0.7382182717437999  0.2531069685068558  0.0097284391030145
  0.0122130508971703  0.5082235204727671  0.0026564385907206
  0.2538315417248076  0.5061620124788545  0.9942889651765938
  0.4902858968191297  0.5111532116748527  0.0006609203399252
  0.7453163499031603  0.4972606101590567  0.0153083565462223
  0.0063885432880949  0.7477186475026448  0.0005383111920513
  0.2434355682711001  0.7651106016178061  0.9976578261923047
  0.4853689494338232  0.7649048727573965  0.0105981698036077
  0.7515632105930589  0.7377843981678679  0.0010649298723411
  0.0012766480018153  0.0109890453470526  0.2296780105826982
  0.2490418761266708  0.0046789706956358  0.2354610794265632
  0.4930635364498318  0.9912077900401837  0.2264570876284490
  0.7480200040896134  0.0112675931256070  0.2348023411619879
  0.9869136778279749  0.2426845085445442  0.2379371953157772
  0.2646283096832523  0.2602168998514415  0.2413221877411261
  0.5125947048073605  0.2480468843969971  0.2482566738562172
  0.7495337193395366  0.2407880139486907  0.2430138120936599
  0.9921957198068502  0.5045411680402396  0.2551014978860128
  0.2441666539361812  0.4737634738322525  0.2825341138444832
  0.4929460254236643  0.4919043933311177  0.2665835238938837
  0.7637872937154102  0.4806914543218423  0.2564732026322857
  0.0298419367438182  0.7582381746047245  0.2257524717181800
  0.2497211833658473  0.7737440591888641  0.2364783302321062
  0.4998814735500404  0.7312460381569215  0.2787532832218461
  0.7487086399248075  0.7351689008127960  0.2708906681812779
  0.0079967886659793  0.0106944743595790  0.4844289442338549
  0.2437569464033138  0.0058231812896464  0.5045651772296864
  0.4857133515406518  0.0158666608533440  0.5067342905085973
  0.7370300117816121  0.9788970330354734  0.5197930966898298
  0.9917124099621828  0.2684204058246282  0.4957705779357646
  0.2461786643816831  0.2509660234973382  0.4996583230825966
  0.5129233659534116  0.2426132823531095  0.4885126001840223
  0.7512502265136730  0.2532117275194503  0.4859305156290251
  0.9925512554981231  0.4884005575261158  0.5108096894639529
  0.2398620898993305  0.4990646068354555  0.5195854501882711
  0.4864476485540699  0.5020907701530507  0.5091469135255359
  0.7357069269034053  0.5046582843140943  0.5027935725476433
  0.9860610480095645  0.7731326438532367  0.4786844072716590
  0.2547704021732084  0.7488446650129323  0.4951574246046815
  0.4807210762562214  0.7526531137379433  0.5091754230097305
  0.7513112380357418  0.7492340495848675  0.4960937767175664
  0.9811170372909466  0.9994598338077025  0.7497228309258887
  0.2266427668572564  0.0194143974338120  0.7548176937165954
  0.5059313648467747  0.0031389327364815  0.7476366256691395
  0.7526806214329389  0.9926581196664584  0.7592171901315794
  0.9971113279420462  0.2467387850291178  0.7605457223950582
  0.2346770038394926  0.2592401125216481  0.7452790353999458
  0.4956404159883769  0.2453504204616817  0.7608047241976371
  0.7654749282223964  0.2461733454400922  0.7295947114217135
  0.9829867538895056  0.5154483780141491  0.7363729104730344
  0.2554130173614844  0.4846755003242811  0.7470938311089271
  0.4957645987884339  0.5090689098038728  0.7531437747437200
  0.7675473599195367  0.5075371408501894  0.7428089860140054
  0.0066099444442785  0.7461843950916431  0.7554693521116670
  0.2372495971405085  0.7586037156149669  0.7567209153295920
  0.5019163885157583  0.7488303962564700  0.7463120410263225
  0.7494625391909132  0.7674971202587917  0.7437449855028274
  0.1285954693775895  0.1112048385685436  0.1138672213073536
  0.3751957322996565  0.1183777996359609  0.1225319762053489
  0.6299659517170587  0.1331384151668830  0.1234552034851944
  0.8790510956376497  0.1195042499277772  0.1290643181151052
  0.1165650524550240  0.3713566133876134  0.1269410396877065
  0.3924083229573171  0.3716868528604364  0.1244336170369162
  0.6245165044179011  0.3774705350706906  0.1247843911415740
  0.8681955939074641  0.3815924787813986  0.1313068953107497
  0.1275325123653789  0.6219151437931827  0.1263198032488375
  0.3769168374272404  0.6391292988269883  0.1185970043618882
  0.6266332610059687  0.6159452050011364  0.1461998430242702
  0.8763548196891513  0.6219088112992327  0.1420142079672837
  0.1279604940977590  0.8784047671378198  0.1099192605737054
  0.3910012815573576  0.8844464206264763  0.1091379495006487
  0.6163804660970865  0.8851962164147642  0.1218143317489465
  0.8774526893263324  0.8762105016976924  0.1218524476711676
  0.1164355027684380  0.1166940744330074  0.3720129016044564
  0.3744974572366188  0.1213630221212897  0.3787925958845079
  0.6233781599872296  0.1197979198272941  0.3786304963722648
  0.8891568221513106  0.1183809939483656  0.3747054118393134
  0.1295512826924731  0.3671265669301131  0.3593744552575177
  0.3627925318958838  0.3735899758986411  0.3916472598371146
  0.6263788030725205  0.3731512235218861  0.3689942987025525
  0.8751630179313250  0.3702656621660128  0.3914156451699795
  0.1326802782293379  0.6184446364588594  0.3938598925169899
  0.3689981614536948  0.6334156508241022  0.3711550913659670
  0.6123653236152702  0.6329497666668302  0.3688384114790936
  0.8749143453614250  0.6148505715658794  0.3829190132080217
  0.1239994414500756  0.8636206292805352  0.3784534659698453
  0.3716290086942484  0.8887136195065608  0.3885364651431586
  0.6219932225748250  0.8648331260089920  0.3727697181434953
  0.8730036395766086  0.8732652722785207  0.3746266140557061
  0.1179663976631911  0.1326355468067986  0.6307111164176463
  0.3722444817364385  0.1176800413728001  0.6381052709631079
  0.6397728885393671  0.1279049469850072  0.6160746536382041
  0.8845822933596370  0.1264477154468156  0.6225172344654583
  0.1156876322758295  0.3814173015444848  0.6277699313296180
  0.3628309362992054  0.3732790639159558  0.6276197103411811
  0.6204223612696312  0.3646423457023877  0.6296540744402969
  0.8810933570859365  0.3636348735510521  0.6325799024080944
  0.1311357111468937  0.6050303128784478  0.6294174371626419
  0.3663130934078326  0.6157910656325132  0.6318557112976957
  0.6380305722374220  0.6331679781827685  0.6066316574364885
  0.8692923375646899  0.6108864671234672  0.6345528123497726
  0.1256992098354379  0.8803042113171327  0.6218009197669451
  0.3787729816231146  0.8758333910432171  0.6159039624806432
  0.6243967583653653  0.8774180182722671  0.6115359642955428
  0.8816013289694038  0.8691134657589504  0.6271401735705390
  0.1286618164968006  0.1249176433196621  0.8618844276213483
  0.3825635318575900  0.1258235825444664  0.8818356157203151
  0.6197439494267569  0.1354621812290560  0.8633950394301592
  0.8641815968705733  0.1249156154522389  0.8797834843326245
  0.1205944815109981  0.3687820726621303  0.8882449066679251
  0.3754394926793396  0.3699143589101394  0.8753125998040429
  0.6341608968073636  0.3546983594989679  0.8776545807526237
  0.8655898449104904  0.3844133882143390  0.8672345254707147
  0.1376005456921771  0.6281342923475777  0.8557776361948933
  0.3772278703164670  0.6255694889973644  0.8793157296562306
  0.6344814767558594  0.6258757760261766  0.8652621872593117
  0.8715499424640404  0.6085388647289693  0.8811406199422064
  0.1158284760021239  0.8717239179907788  0.8823640845000866
  0.3742140646527725  0.8754585043153246  0.8780351827945694
  0.6355917423694188  0.8736348119628188  0.8573465108563252
  0.8587052128411101  0.8809614360783551  0.8825680820843735
