generated by phonopy
   1.0
    15.9923497217343744   -0.0000000000015236   -0.0000000000010772
     7.9961748610645493   13.8497811253384029    0.0000000000003944
     7.9961748610645493    4.6165937083140518   13.0576988688087816
Na Cl
  64   64
Direct
  0.0001365977048864  0.0082530861734411  0.9900407849958195
  0.2455303961552923  0.9965329996398586  0.0074698003948986
  0.5029728694732482  0.9954698580487156  0.9938129774701290
  0.7377411404939541  0.9930627443308484  0.0057327822562207
  0.0024298441719967  0.2356458017171034  0.0093491445659833
  0.2385624433702423  0.2440941221755271  0.0213473494350805
  0.4981256843656372  0.2475963554448285  0.0069379868218437
  0.7541110223348200  0.2592458580409864  0.9788557734361218
  0.0080759582847493  0.4877312120163079  0.0127981981703473
  0.2486158373969355  0.4911297991699323  0.0153483194653473
  0.5011812454762908  0.4845685694675179  0.9967826452246649
  0.7445864241684873  0.4879423788285120  0.0136608501426116
  0.9973865832702195  0.7531065355598671  0.0055102530792649
  0.2526320799153541  0.7466336005461689  0.0122636098225163
  0.5044052281302526  0.7457864656185035  0.0065191236427523
  0.7450188531665289  0.7450642891818962  0.0041261773907983
  0.9816155841386867  0.0082019669011913  0.2616293726537331
  0.2635641698439525  0.9938168729869815  0.2381423494841652
  0.4911224355321278  0.9994838285328701  0.2555653771212660
  0.7649590001280745  0.9945053625161929  0.2483306544413781
  0.9960520051516052  0.2396368054631179  0.2494275230740428
  0.2640257297452437  0.2487649179262991  0.2309430168797348
  0.5125422479258062  0.2431499097923635  0.2560896109887683
  0.7439983323193019  0.2444768226797563  0.2581988329537777
  0.0141443473173898  0.4940452571484573  0.2378964826425823
  0.2448111716674938  0.5093347568800436  0.2533703274296887
  0.5058000451028539  0.4931379427025574  0.2348448911320762
  0.7566218066277753  0.5041050515846655  0.2519570258824177
  0.9965943891474855  0.7598055176131214  0.2501531288887801
  0.2593348659203084  0.7392992187001408  0.2437509162058957
  0.5034975138657503  0.7477066201274113  0.2403024799789335
  0.7564786579495902  0.7372909440522782  0.2529876732640585
  0.9878362272220977  0.0038033504273985  0.5071518675798669
  0.2422869873610349  0.0064410356865723  0.5000672934146833
  0.4923176305954859  0.9829624188876286  0.5090925831729682
  0.7457895899187683  0.9997177661669351  0.4876157984543433
  0.9854096931007716  0.2512843472590564  0.5163227806533820
  0.2453185576928383  0.2474762175961190  0.4983131409223027
  0.5121670476862833  0.2331951317226283  0.5041068093145163
  0.7552251993981632  0.2515025060397144  0.5146083373017111
  0.0150559206730987  0.4856497780763792  0.4873450037163246
  0.2423466870635824  0.4987186337753923  0.5218665170419950
  0.5034068977257928  0.4949927872990336  0.4905431390538348
  0.7436035299170233  0.4880030493285964  0.5052912775312002
  0.9810706478563522  0.7594999228520580  0.5070722915127329
  0.2423250673115243  0.7537883622634889  0.5211136886354450
  0.4942657776706938  0.7393694116430097  0.5196620163979221
  0.7582093091813317  0.7535302666704652  0.4903732661210388
  0.0073282149625901  0.0123079760112198  0.7401421592781978
  0.2448750810947848  0.9887718955178226  0.7487523495968006
  0.4972876802069369  0.0055291797385762  0.7440068043037749
  0.7400347156973432  0.9975637507049997  0.7570330281358414
  0.9958822165325860  0.2366932761537439  0.7685092917644295
  0.2364459836565974  0.2535860981520171  0.7571826896616690
  0.4976740504501428  0.2566589599173005  0.7384060620703212
  0.7474234945147166  0.2669196474038403  0.7393766603701752
  0.9855672193049352  0.4954700927657797  0.7679548320807313
  0.2517317177518986  0.4999532571901480  0.7354736825985219
  0.4786503154286464  0.5111947283529295  0.7633068726437781
  0.7346592964965599  0.4835046949861078  0.7693917192135925
  0.9978780741845699  0.7483236155400510  0.7639689625487066
  0.2518367810798969  0.7540320707012969  0.7514415214575009
  0.5149079241257666  0.7704116724243594  0.7273493337747824
  0.7425013193320491  0.7707538412561843  0.7431317899481488
  0.1179895687728341  0.1350886000797181  0.1281044477461430
  0.3824246985807781  0.1288087143739883  0.1254053735256494
  0.6246491220065762  0.1223434911388589  0.1287570390543848
  0.8895233792761579  0.1142509903793827  0.1248798557524445
  0.1313124197519631  0.3662183247841961  0.1356188856113393
  0.3756384467683299  0.3770391998035860  0.1263643883675834
  0.6174046360767791  0.3690191846672923  0.1386776711091693
  0.8790941448805430  0.3645652416422087  0.1328287928012981
  0.1301238746224674  0.6264995523998421  0.1211228188466832
  0.3709915442490338  0.6318511977361303  0.1166793194564803
  0.6089486085412692  0.6324533837313447  0.1436062359930624
  0.8700584786418926  0.6158649136920235  0.1297154729652955
  0.1400987951578980  0.8441089335925636  0.1225665616075376
  0.3692229263372787  0.8732608850719757  0.1319114241876447
  0.6303185114524615  0.8687580002080447  0.1275407650602954
  0.8699175580304226  0.8740175099800847  0.1182730951966628
  0.1247672274521842  0.1181505184251758  0.3743704318191466
  0.3727827153145166  0.1357880867569199  0.3633614511324184
  0.6225816909941251  0.1282897478263474  0.3678542388646400
  0.8609936364347288  0.1131908404881762  0.3830753215262311
  0.1204593642696698  0.3730097717850326  0.3748774865951913
  0.3826877686658583  0.3872519313277748  0.3505470710553026
  0.6270972830671586  0.3703136348177340  0.3876383670350557
  0.8715472122726933  0.3748048134087921  0.3667453925326504
  0.1174100587241851  0.6448445805043447  0.3665507628801444
  0.3592980364802466  0.6426570866942265  0.3725120746282580
  0.6164447261987263  0.6227704558047261  0.3702962466494466
  0.8850464960535511  0.6386092765952627  0.3647333424613241
  0.1373909657050424  0.8736620527260998  0.3619659796385226
  0.3704435717786610  0.8705820515784244  0.3766547105188928
  0.6000021020652566  0.8756630854643508  0.3766566938865896
  0.8660074632774003  0.8899400452268268  0.3736083678574830
  0.1261771205506755  0.1213473908124417  0.6182563158831095
  0.3868108562948239  0.1226253289533037  0.6255333022400082
  0.6348260128675440  0.1215743309138097  0.6227635766077584
  0.8725189927079822  0.1291947357495419  0.6368251326432394
  0.1092131137880433  0.3820293802288033  0.6311745562992944
  0.3635766882002284  0.3876629096810709  0.6384587862847700
  0.6244256955939590  0.3961361132107253  0.6181067490750703
  0.8761388873173195  0.3760560685108731  0.6342299165507824
  0.1313295593534601  0.6242773032034459  0.6166822408726543
  0.3607897034373106  0.6263516043711532  0.6317834022532919
  0.6168603035597596  0.6227271011043305  0.6307074903239397
  0.8747206446574590  0.6136449028543867  0.6351180008202472
  0.1362844668348481  0.8730056751962769  0.6332315961796867
  0.3607379199133287  0.8838206034968386  0.6231624145345727
  0.6329043127120754  0.8669744744434971  0.6224570390275691
  0.8826920968902339  0.8599060152916527  0.6444726629827915
  0.1267250048797526  0.1154147644494278  0.8733470999603098
  0.3758280551252520  0.1048696293927863  0.8661776575230405
  0.6446100809247723  0.1194985689551722  0.8618141618565006
  0.8844301229107425  0.1234579520640302  0.8702724125723077
  0.1271209670573139  0.3663234106645680  0.8839089944194765
  0.3848501237939728  0.3853828886546952  0.8664424770520450
  0.6348911764681687  0.3545249806466794  0.8780593643604707
  0.8881557950936545  0.3791844352053974  0.8605677944228834
  0.1180000010713589  0.6268111642918569  0.8716139422848095
  0.3871152435164913  0.6151561491006576  0.8785742374285519
  0.6220158354423350  0.6097339503421831  0.8826331651884631
  0.8571989694449177  0.6334928203466867  0.8816813620934381
  0.1201763397048520  0.8812940713940189  0.8839113749171850
  0.3811523766734185  0.8717057296126187  0.8615775066052866
  0.6315944135520286  0.8806055977111817  0.8673936724696805
  0.8707847504065764  0.8710143420089183  0.8709055117011353
