generated by phonopy
   1.0
    15.9923497217343744   -0.0000000000015236   -0.0000000000010772
     7.9961748610645493   13.8497811253384029    0.0000000000003944
     7.9961748610645493    4.6165937083140518   13.0576988688087816
Na Cl
  64   64
Direct
  0.9855956405509754  0.9831540744001004  0.0178974239705778
  0.2429193762957803  0.0099402239636827  0.9896291996806498
  0.4854528584610428  0.0060516988817902  0.9985928795017591
  0.7512455344228411  0.0018747389280711  0.9897009809301397
  0.9956223249174526  0.2522352767917626  0.0083644846684394
  0.2638936270951583  0.2399382233235000  0.9998477917032349
  0.4871710370841036  0.2556047994655784  0.0033766541215876
  0.7689006357827790  0.2430932372222779  0.9962836998659126
  0.9987574940074495  0.4798092226473457  0.0120604424453639
  0.2330471764177442  0.5084232272653595  0.0111849099948371
  0.5227143943580389  0.5054279547443390  0.9795226346070730
  0.7680085886758703  0.5067498831335776  0.0062269010018110
  0.9897539400767849  0.7460534572457309  0.9885813938290011
  0.2653325589578198  0.7496140751473946  0.9946567492197889
  0.5225161671984123  0.7401740691159382  0.9948062492689036
  0.7418615948899995  0.7534692807829243  0.0204818137055225
  0.0188979347914660  0.9765730011505053  0.2446170019833437
  0.2491839748083738  0.0068749187630726  0.2334775188688129
  0.5003955045807004  0.9879095616338944  0.2585771403716747
  0.7362518367248466  0.0020086335194949  0.2638749443009567
  0.0116551095074174  0.2509406798492120  0.2338786156152155
  0.2660157968680629  0.2387657448471786  0.2439953063628980
  0.5129702593924510  0.2461292793689341  0.2410712934390163
  0.7518501704018118  0.2500857482506718  0.2543614178663473
  0.9931434211436367  0.5019804023081847  0.2663757073567744
  0.2451764968600728  0.5020117575087154  0.2414718378551709
  0.4960003553655573  0.5008168470834080  0.2592217913620511
  0.7341962072161587  0.5172825695275722  0.2666427772891735
  0.0123357453318352  0.7511508545237927  0.2623263015877024
  0.2472029018379258  0.7360289596710246  0.2527071944878951
  0.4903347775315649  0.7726045115712169  0.2415378202076734
  0.7575162397476282  0.7532959990771043  0.2463698425576589
  0.9921669694456534  0.9918335970042987  0.4839936235534584
  0.2481006362238175  0.0082986310763177  0.4816365622203588
  0.4933374982930472  0.9933999170544898  0.5225908639232159
  0.7540697256972859  0.0014500791326550  0.5160611244703286
  0.9893205380008936  0.2477647471012837  0.4993075372095365
  0.2481420610620358  0.2658365528846620  0.5002406813635372
  0.5161599588533545  0.2432542788337155  0.4950066076359346
  0.7366379818749748  0.2488549627928987  0.4990952417619923
  0.0164111808223351  0.4908865271327005  0.4904509244382205
  0.2681855037103962  0.4880770059642698  0.4974253171267629
  0.5109064802167262  0.4953299425884353  0.5035540348657147
  0.7556163992156726  0.5137767088466867  0.4998138960541096
  0.9987888595007546  0.7553148424148886  0.5023560770669083
  0.2579364768670825  0.7488551933208007  0.4812969293314087
  0.4973594625782732  0.7570213763582984  0.4926140345492484
  0.7283096294915214  0.7656971011736722  0.4899192244123916
  0.0049674343476377  0.9895012582367910  0.7311364226186278
  0.2581897950041237  0.9923544322075541  0.7710612788857760
  0.4872115837946389  0.0262015000530649  0.7343989837415857
  0.7471257228223983  0.0017385956011936  0.7551132212095854
  0.9869749488824058  0.2623856473825810  0.7526060792529652
  0.2409360404722088  0.2601559854904343  0.7281233036485257
  0.5008209964075013  0.2335410130889312  0.7640705662079020
  0.7543420797697775  0.2544629343527198  0.7629670411898238
  0.9801605924368922  0.5171451322673326  0.7466014438159487
  0.2572611589055024  0.4987283436399947  0.7440092566957117
  0.4843686363573437  0.5067468876403172  0.7698545057707257
  0.7435909906503853  0.4822605586817867  0.7671400833454554
  0.9873099626072409  0.7435637986782989  0.7702400368465815
  0.2686632828736246  0.7469356464498056  0.7516823669723909
  0.4933112447587862  0.7715275716608001  0.7446038961223880
  0.7440509637596618  0.7590771827786963  0.7500343505668822
  0.1245997468410684  0.1103836629332383  0.1324758423628397
  0.3701736464878674  0.1154749377258120  0.1456896815956508
  0.6316335946693531  0.1110372874128150  0.1315532939413720
  0.8752236384439571  0.1138884988772049  0.1455925673314660
  0.1130630792138791  0.3877405139617504  0.1118096930026954
  0.3670277900349233  0.3705663513569631  0.1289759181728917
  0.6202753084432461  0.3751626332657826  0.1434361068657632
  0.8859079501502201  0.3646823879082485  0.1115409535266020
  0.1167178310595196  0.6323820258153349  0.1226757588090697
  0.3720473674510667  0.6104662486504576  0.1307240716430780
  0.6251903655949600  0.6197854246025775  0.1275000737841890
  0.8899408976514323  0.6283925064616217  0.1109922453809953
  0.1408772576736494  0.8713188819219465  0.1112016812499599
  0.3697749487466307  0.8744095894214160  0.1255559873646782
  0.6249077152673872  0.8681519921413349  0.1217285425371453
  0.8664482975193499  0.8893986265689052  0.1180504422018718
  0.1184382103196411  0.1164111139608714  0.3766905823141971
  0.3762633062019423  0.1334073749280159  0.3683733254479030
  0.6379801520571728  0.1252260816089329  0.3700200541385768
  0.8664047106196170  0.1433057535099931  0.3598258973622376
  0.1108231399064940  0.3737281012623652  0.3814200203049758
  0.3918800464191271  0.3662991435272726  0.3737399190280456
  0.6101587119087475  0.3806773172675907  0.3722359343262893
  0.8675025268174729  0.3842625635000881  0.3824516864734478
  0.1303165395120477  0.6131564557653373  0.3744445325489743
  0.3786616701820688  0.6305536728826007  0.3687645407323354
  0.6290886303774955  0.6154311913944778  0.3667996019203316
  0.8796594854734889  0.6222579773544707  0.3605838975883578
  0.1369006739541588  0.8844351298133799  0.3639271171859673
  0.3580468080869900  0.8684383949315253  0.3961649686187045
  0.6192706314103915  0.8870925591395952  0.3731582861798144
  0.8709958443571691  0.8837252660923937  0.3722442201358516
  0.1104359952575638  0.1326136867128818  0.6219628540936435
  0.3816876639841642  0.1270420910774331  0.6204777461909640
  0.6305425776568375  0.1049731561603399  0.6393387362360803
  0.8701148241919022  0.1305449023614911  0.6104698893222092
  0.1346325266357654  0.3788420163247150  0.6116859276630036
  0.3672036127796677  0.3639754003449033  0.6281543819950201
  0.6126834069244631  0.3904464271959949  0.6293217014417106
  0.8684771967252048  0.3816524726027876  0.6245030988480067
  0.1149217369894664  0.6234867286606375  0.6270025135304658
  0.3727972637747958  0.6218410724870365  0.6290914547619341
  0.6325430442180179  0.6266061167177210  0.6124252114255863
  0.8826202352585016  0.6251868801886303  0.6288065621938179
  0.1364899255567247  0.8957906319579514  0.6089425455587392
  0.3488577426461576  0.8909116149363109  0.6225236901104900
  0.6228381651026992  0.8619591498582312  0.6380704638870573
  0.8694840986248992  0.8722529854442626  0.6390690918056762
  0.1310840382799049  0.1237625092025833  0.8656647338726065
  0.3790630327671812  0.1280409369562113  0.8645977214213879
  0.6259664135964608  0.1224584088158268  0.8697907178337011
  0.8654637915252786  0.1269803066210205  0.8699554360646005
  0.1234999045567131  0.3859949108652704  0.8747142488914329
  0.3739849067753092  0.3862272393206759  0.8750912615178534
  0.6022447624331702  0.3794622542910204  0.8874990999307921
  0.8658300786332823  0.3863288415850030  0.8691611634896318
  0.1425287712746572  0.6116164936328690  0.8583500401352826
  0.3806774136976012  0.6393104051250921  0.8579934367854285
  0.6348467090816021  0.6112995813711204  0.8831573180323127
  0.8585598299299445  0.6300173655705887  0.8814181008432556
  0.1120050665651209  0.8697732186947751  0.8822814546401101
  0.3723901580893257  0.8699357140266527  0.8754192850940667
  0.5987757130166401  0.8642601382166736  0.8911297081385200
  0.8773497569102164  0.8901670908494993  0.8716404087747458
