generated by phonopy
   1.0
    15.9923497217343744   -0.0000000000015236   -0.0000000000010772
     7.9961748610645493   13.8497811253384029    0.0000000000003944
     7.9961748610645493    4.6165937083140518   13.0576988688087816
Na Cl
  64   64
Direct
  0.9964210479980380  0.0058701039951684  0.0052238087941005
  0.2572009102412301  0.9959869752310826  0.9935905281756465
  0.5058240830439809  0.0076731611781412  0.0065989273749346
  0.7450205268898116  0.9912882313186616  0.0009550528852208
  0.9933060853065058  0.2520860578724607  0.9989114576530588
  0.2573369627208495  0.2371373267039904  0.9988698382424657
  0.5145520406250909  0.2486275846732855  0.0018383038370994
  0.7425613486794732  0.2411430722975383  0.0000951881158740
  0.0064254867792008  0.5081720513244338  0.9821352787728854
  0.2481888440559776  0.5053240878152979  0.0036454021565209
  0.4831615485068785  0.4987196630571996  0.0307888369992247
  0.7626126825020343  0.4947323815114407  0.9877135118370811
  0.9907228329348239  0.7527626542307170  0.0127973091925334
  0.2609055432893534  0.7473702914744957  0.9946782353227978
  0.5070571068893600  0.7492147456826205  0.9871975646350255
  0.7504511834389700  0.7524081592753317  0.0003913917391102
  0.0069864621916660  0.9931868462354715  0.2367634205093464
  0.2470507469740620  0.0084101516490881  0.2506600412760994
  0.5113224193163349  0.0126607980189978  0.2296553536308643
  0.7547450885261890  0.9958271141130199  0.2494340002588170
  0.0064476163091134  0.2538781140162858  0.2623737494945913
  0.2515879487677685  0.2458472318149409  0.2550680402531759
  0.4973855204878174  0.2458590896960316  0.2563526959269188
  0.7356761649169774  0.2393031889648355  0.2582353460912256
  0.9991083356595331  0.5058994077261921  0.2430862495206091
  0.2492821888097201  0.5019975426900988  0.2505915890217075
  0.4998610707452673  0.4933244216564519  0.2599185947664170
  0.7549528394991442  0.4955141267920245  0.2572593505891111
  0.9987918185911980  0.7311252247655500  0.2614821572433630
  0.2620789990635433  0.7466115477666527  0.2493569188428751
  0.4839682656662714  0.7497026546580767  0.2701302098573309
  0.7529635296405800  0.7445828295891069  0.2567659131269038
  0.0003449795942733  0.0165120781269845  0.4855836613644711
  0.2526665918352088  0.0007399348646388  0.4923004267995679
  0.4891037924269059  0.0038443364761851  0.5055147236448335
  0.7618567503549988  0.9822187885733822  0.5034597746881895
  0.9969453016262514  0.2491045631217151  0.5041660595715658
  0.2463639069633381  0.2410730209516681  0.4998620428167410
  0.4994363005790644  0.2634119452055079  0.4924405549227748
  0.7664461491994705  0.2269551409064361  0.4921581903496514
  0.9973202128889511  0.5022910284319350  0.5056074272553052
  0.2482891449968102  0.4966928371001695  0.4993423228171732
  0.4963440413923846  0.5159242179968447  0.4865450549210240
  0.7537505706100790  0.4981146523167074  0.4858348894612033
  0.0102008208539707  0.7520564823614606  0.4891129112663167
  0.2500761480539630  0.7444463230212648  0.5024964824964171
  0.4971109175765934  0.7530036026005112  0.4983778127742994
  0.7593176477690324  0.7356499190655200  0.5010482967722437
  0.9951660715203670  0.0146013973147548  0.7486088099213857
  0.2644982654256057  0.9792896541330819  0.7567868177996252
  0.4988496131882749  0.9806011538365502  0.7524313246451578
  0.7527197824799703  0.0007223806617752  0.7549104269977022
  0.9940151764081948  0.2468359694071445  0.7556185794191917
  0.2528515750073811  0.2416364311235689  0.7609325087669258
  0.5079902800468570  0.2439335749020636  0.7563012704434402
  0.7368260145264218  0.2660512253996188  0.7479884459132433
  0.0046919437970059  0.4926967717223345  0.7423320305884326
  0.2446326732323870  0.5112120449457372  0.7531145988114604
  0.4999961976704732  0.5245201262494796  0.7446175457547494
  0.7412627838568995  0.4955694396255885  0.7583696513527061
  0.0080889227367246  0.7568167906812177  0.7344255652052269
  0.2493161529264421  0.7431693451105738  0.7646519234615966
  0.5045302757890987  0.7596921821646514  0.7398379109014627
  0.7409490738008447  0.7651731760756583  0.7377016401603417
  0.1205251510105823  0.1198384787164352  0.1208561660149117
  0.3745619235236869  0.1269886407191890  0.1320649885428915
  0.6124426047692411  0.1541152158411475  0.1206669735059032
  0.8868282639862362  0.1326599558246301  0.1252269894184299
  0.1189145975324396  0.3843236550422744  0.1259246064650141
  0.3702309177965445  0.3694929692071780  0.1304424733711081
  0.6232638250800711  0.3602748265942570  0.1291791719942932
  0.8657142479874818  0.3771023568640592  0.1280728787632137
  0.1266867865968491  0.6140325308881568  0.1269335328749097
  0.3755325996984899  0.6175678465803444  0.1302931376516545
  0.6352497873399505  0.6108335025784299  0.1251842683072763
  0.8614456253103761  0.6349730858014682  0.1135571118394195
  0.1138064901069446  0.8961305860689079  0.1035330642197645
  0.3828556399845975  0.8755980400717726  0.1323880098714837
  0.6347583360367982  0.8768385262669427  0.1198678569148046
  0.8705306055384934  0.8627816295551244  0.1332962159654275
  0.1263175558480094  0.1384524492502989  0.3590400866235678
  0.3705773701694807  0.1288313218107597  0.3777431635686397
  0.6329660575097793  0.1192391598548340  0.3793881382684317
  0.8626325577327564  0.1215597819954236  0.3752057314619031
  0.1423919679010652  0.3724750523505456  0.3575764696739048
  0.3771442793317715  0.3869194677760746  0.3598836466846722
  0.6182921070829273  0.3871312688697685  0.3747095296738335
  0.8738684782708620  0.3736999203966970  0.3782342017036976
  0.1204798870747179  0.6245228094043996  0.3765894713586870
  0.3767561246289672  0.6321923951902574  0.3636869505294554
  0.6394684412942112  0.6087625430772357  0.3659552350462463
  0.8739048037268560  0.6157147181589604  0.3837981523522239
  0.1213206580716190  0.8781127550823774  0.3774870880322410
  0.3803718520384541  0.8684048092508437  0.3712596968943986
  0.6283763184611808  0.8807286750329866  0.3662892744502851
  0.8670625563614346  0.8852939351358293  0.3751293750329001
  0.1230787588011777  0.1358724391978039  0.6296795075933791
  0.3700915961882056  0.1315181354040810  0.6297346439030460
  0.6311486683027634  0.1125497974689294  0.6344469041664366
  0.8671774791138971  0.1300322754121902  0.6326904648866878
  0.1251137911425484  0.3641508604231223  0.6299180021385443
  0.3720877528060716  0.3722283740971338  0.6311952886541089
  0.6267128426346660  0.3839004623209309  0.6106759678449315
  0.8925905127621481  0.3743514745808000  0.6238958132412192
  0.1138434903054076  0.6387701021016799  0.6081433681998977
  0.3694052787023051  0.6220273135921033  0.6227850729813700
  0.6213823155652959  0.6281124506243861  0.6181197294064218
  0.8862872641673094  0.6172206582252437  0.6073883384606168
  0.1467298624057429  0.8608816327870904  0.6224870876758527
  0.3766109690964026  0.8682505920961496  0.6284621683094472
  0.6187672403921832  0.8608777156507772  0.6308187375094508
  0.8866117045849939  0.8794671566249592  0.6069386480644202
  0.1215207234290408  0.1372722113763098  0.8721280901341494
  0.3623910946569098  0.1207221273934439  0.8838518002802324
  0.6012063131435172  0.1312528704126962  0.8904853761074474
  0.8967709064956061  0.1049815013930356  0.8723361369039618
  0.1372129126756369  0.3733668974717249  0.8724027691574449
  0.3862913544817013  0.3708897829176099  0.8719118565519886
  0.6283344399679544  0.3681439893943439  0.8662471410102388
  0.8626908032379994  0.3720702857636778  0.8926259627844924
  0.1421730823983871  0.6266747879501126  0.8669917101396210
  0.3796116340714015  0.6283329324431574  0.8959432513900337
  0.6277141466967582  0.6243355283346887  0.8624912902076467
  0.8668614228002814  0.6307240481482712  0.8867398272909900
  0.1209169596111035  0.8563217259969029  0.8984640592408029
  0.3799765574937408  0.8631315301230623  0.8913668404022197
  0.6366102105380205  0.8608197877747299  0.8799947623484885
  0.8540061325355448  0.8907354152433401  0.8754324500109884
