generated by phonopy
   1.0
    15.9923497217343744   -0.0000000000015236   -0.0000000000010772
     7.9961748610645493   13.8497811253384029    0.0000000000003944
     7.9961748610645493    4.6165937083140518   13.0576988688087816
Na Cl
  64   64
Direct
  0.0076780539235305  0.9927993659699544  0.0062288638283017
  0.2512494108744647  0.9995295481560410  0.0033741817590348
  0.5037132826982279  0.0013528632046573  0.9959319975911010
  0.7315062125117340  0.0230882862250777  0.9918919774420695
  0.0123274573137467  0.2514740254825962  0.9975515397083989
  0.2574802206986190  0.2551762715217744  0.9894825925182554
  0.5067227491480920  0.2416246079384113  0.0050177182890090
  0.7646466698163025  0.2343424314358234  0.0051639043566526
  0.0040637694673531  0.5063153389334287  0.0017275101272718
  0.2399286417461247  0.4853091899205792  0.0044135066596507
  0.5082870140231355  0.4963686760312663  0.0073236451390682
  0.7491428470852608  0.4979506492394317  0.9970072025605633
  0.9807348706230288  0.7649402537235170  0.0116233689152619
  0.2514401699117394  0.7301031986841249  0.0135442148842656
  0.5062998380961627  0.7627266443488414  0.9929857625042763
  0.7419504260924424  0.7557369119166998  0.0155500569462237
  0.9822402105938276  0.0121174239224123  0.2596347381028024
  0.2508122176306819  0.9956702720953404  0.2654999854706706
  0.4944254467462471  0.9918998537972780  0.2639155987740670
  0.7415009622415795  0.0193054799600923  0.2470572999979201
  0.9878457094864452  0.2592989024967425  0.2536572592832350
  0.2371247188842353  0.2442406889063351  0.2629973166472708
  0.4920319562737270  0.2854812569214656  0.2431790164664684
  0.7632937266453352  0.2410343941031915  0.2468544464447731
  0.9867049279653406  0.5003971640859077  0.2581310412632490
  0.2506328188704445  0.4951275990323444  0.2577845225050853
  0.4816018831677232  0.5020135773477323  0.2559726459299210
  0.7431689245362185  0.5072511628003504  0.2418721437650845
  0.0153381746279754  0.7639203556781223  0.2360671363410587
  0.2497877733092607  0.7569304062214729  0.2462119280311416
  0.4904436860569520  0.7462288727527331  0.2507859411896022
  0.7172198204923165  0.7578699505239417  0.2569983294717169
  0.9984239686454283  0.0086916905702075  0.5099261356719127
  0.2603656622122588  0.0015784526740738  0.4911907188780435
  0.5080001699433334  0.9917387284302009  0.4769689037654483
  0.7441295079710848  0.0127469870665620  0.4837099403489306
  0.9978824444125743  0.2608776769241369  0.4976722398434661
  0.2552300871267502  0.2476760659177276  0.5141743597880480
  0.5018961527908848  0.2606042716365483  0.5004788161879388
  0.7503258277059904  0.2562999352375019  0.4982238518596311
  0.0025653253174332  0.4844730822754659  0.5000922397571983
  0.2467224722355359  0.4880366241435786  0.4983168400514142
  0.5081056410771680  0.5031922436045606  0.4992195367510165
  0.7537763436699881  0.5104735470700190  0.4876646910928248
  0.9861013512577578  0.7545263979592363  0.4863147183734629
  0.2689560866769081  0.7440859559047737  0.5083484876325386
  0.5022051954554503  0.7648507103581142  0.4797891567739389
  0.7729423700564081  0.7303590433451411  0.4924860913561946
  0.0126535142572212  0.9861112787447367  0.7581104692439745
  0.2359685907508391  0.0109029510534543  0.7482539015064431
  0.4912598756683753  0.9803585203814479  0.7622632252454650
  0.7693583083614391  0.9917940289808100  0.7544324542117729
  0.0047662527381429  0.2397598065240897  0.7421303387546829
  0.2574552536842821  0.2617376762319406  0.7321230544720868
  0.4939207555833730  0.2654658688329627  0.7421624138501390
  0.7541989006921588  0.2272285165296008  0.7661443346194166
  0.9903574866659888  0.5049960268264527  0.7541716867212326
  0.2467707656057045  0.5036744316082092  0.7365027240571503
  0.4888038313203122  0.5175864735453211  0.7579592756864201
  0.7507663787315223  0.4908332704733601  0.7619052319405745
  0.9905918108222940  0.7471652496953349  0.7591003568788153
  0.2609215264538264  0.7459164290983805  0.7489727379234689
  0.4926902293564984  0.7476439388383731  0.7652795532086424
  0.7188855176309671  0.7623567981584414  0.7587991805537722
  0.1094107836347961  0.1365396043672110  0.1285209846334888
  0.3778769027675251  0.1409118900812996  0.1300958319362874
  0.6306348484094910  0.1297751355706140  0.1276732276042888
  0.9048169133728128  0.1109476549151097  0.1110431932814031
  0.1198821472583362  0.3800802433779046  0.1148921876186556
  0.3604112378831568  0.4005285463318987  0.1186167752740722
  0.6041911773100638  0.3760641565150184  0.1313110263758057
  0.8793051682606801  0.3825387263764952  0.1059764146007166
  0.1294598297907689  0.6287186021385760  0.1202682946307994
  0.3803203067477602  0.6234435447740053  0.1257175221363641
  0.6223317159096161  0.6363872218007378  0.1336716139495215
  0.8817836239186078  0.6361717896002944  0.1096731974494734
  0.1140483432842866  0.8772726827299306  0.1281299122816258
  0.3785807329093516  0.8734441255115025  0.1331991604719195
  0.6285631423814559  0.8705800808006898  0.1158050930843979
  0.8767297735175027  0.8687738838111251  0.1192859188014091
  0.1357658537579022  0.1261123603195235  0.3781261572347850
  0.3836596387316784  0.1237433784726102  0.3625590020157016
  0.6316277947277704  0.1251876022320364  0.3644814410694592
  0.8820047799346435  0.1191345840705946  0.3805671636357280
  0.1245050169367687  0.3745386596881819  0.3580752649677245
  0.3854220336182969  0.3701021300117193  0.3533221356897270
  0.6288908757689039  0.3586474228090222  0.3816067940868054
  0.8891055772969151  0.3675081492867556  0.3785213903223392
  0.1367535331246063  0.6189486994699850  0.3733023055780132
  0.3525979427426981  0.6306530520372750  0.3863298909783080
  0.6184616715430437  0.6171430971312983  0.3810722314154834
  0.8778751442631282  0.6138482683469234  0.3697895726613853
  0.1284570613552396  0.8712615899221430  0.3708363078025947
  0.3780530057469492  0.8719938156294229  0.3783412057033942
  0.6110375537739059  0.8844689128527394  0.3990087047920422
  0.8853901025438101  0.8710968401402417  0.3691642566531248
  0.1281099065885576  0.1295047403791473  0.6236943947196454
  0.3686216553854113  0.1553207971537969  0.6188982394576047
  0.6247886670744768  0.1352865729748171  0.6173942242293359
  0.8664768689222373  0.1368896773674290  0.6233852029016264
  0.1291977094143041  0.3807641585488779  0.6238440504682589
  0.3808460845063737  0.3817394863734893  0.6066541979881470
  0.6314507622622358  0.3710480940683428  0.6353661557241064
  0.8622736853809161  0.3775692820304862  0.6333307052233503
  0.1188647700642303  0.6204978868820387  0.6223521462075278
  0.3706753778100101  0.6371461716034578  0.6223269375812541
  0.6158222295605800  0.6274433697509334  0.6384604877814556
  0.8714457851253999  0.6201794592336004  0.6335825512680742
  0.1386094101605972  0.8814971444213837  0.6134435862916497
  0.3652147186418116  0.8696744049059737  0.6113979787343914
  0.6161216708557806  0.8739323554003247  0.6133837691543297
  0.8763762679508390  0.8850738681720375  0.6037251176625013
  0.1259815892081164  0.1261435645047294  0.8669723540457069
  0.3761658951789250  0.1028782198368001  0.8871795563427453
  0.6248110204426393  0.1190085249289476  0.8680242453152851
  0.8645956903365417  0.1324916596948087  0.8797124922078555
  0.1153914576310926  0.3768608715191970  0.8872417642483754
  0.3671975933323551  0.3658883637049163  0.8888082424356035
  0.6276404471401824  0.3812039119203016  0.8678357460720303
  0.8697263517402042  0.3617189629796143  0.8917145688092680
  0.1176233211327473  0.6438687824456024  0.8791163578377451
  0.3795528361995817  0.6062477693923609  0.8761309125101397
  0.6237489893799085  0.6263289793937359  0.8751721685910394
  0.8943011811057703  0.6215799572054649  0.8731057441961232
  0.1211962521349202  0.8710779040437614  0.8953378563588904
  0.3640026875618986  0.8898048406362667  0.8674983088099201
  0.6335332839673584  0.8864663574642824  0.8685872547060008
  0.8669128796595591  0.8769938286858300  0.8687809913865692
