generated by phonopy
   1.0
     5.6309507241888097    0.0000000000000000    0.0000000000000000
     0.0000000000000000    5.6309507241888097    0.0000000000000000
     0.0000000000000000    0.0000000000000000    5.6309507241888097
Na Cl
   4    4
Direct
  0.0000000000000000  0.0000000000000000  0.0000000000000000
  0.0000000000000000  0.5000000000000000  0.5000000000000000
  0.5000000000000000  0.0000000000000000  0.5000000000000000
  0.5000000000000000  0.5000000000000000  0.0000000000000000
  0.5000000000000000  0.5000000000000000  0.5000000000000000
  0.5000000000000000  0.0000000000000000  0.0000000000000000
  0.0000000000000000  0.5000000000000000  0.0000000000000000
  0.0000000000000000  0.0000000000000000  0.5000000000000000
