generated by phonopy
   1.0
    21.6684856414789984    0.0000000000000000    0.0000000000000000
     0.0000000000000000   21.6684856414789984    0.0000000000000000
     0.0000000000000000    0.0000000000000000   21.6684856414789984
Si
 512
Direct
  0.4856676039868866  0.2041435266328396  0.1498980800941505
  0.5302304486185825  0.0950615734970606  0.2367791168922122
  0.6123421690936486  0.0515457074311571  0.7230547578889386
  0.2396028289331352  0.8811393388323627  0.5246875656189971
  0.7757970192856132  0.3620879197200191  0.1431107021038936
  0.9121076842905008  0.2293490429557866  0.0231077612842638
  0.0012094776475868  0.8577802551325739  0.8236547327042543
  0.8649270494622335  0.8343019038624238  0.4846962697524858
  0.0330165250081056  0.1735196512362653  0.7937367764767367
  0.2483644796409920  0.4494106811789206  0.5901843004591659
  0.9641935067734172  0.9696556217035908  0.6573251700837606
  0.0550112934920171  0.5740114338028414  0.2033975823392305
  0.2112436187459789  0.3974393561605764  0.8281230633027232
  0.9002766098527575  0.4235436658820779  0.8870182249808610
  0.7784140825985092  0.9116533447748618  0.1033660655744271
  0.6136841197933757  0.6228321144018110  0.9714357280245145
  0.8052853298648450  0.0505682334638165  0.3234184792490291
  0.9190924658829934  0.8611353485887591  0.7475119059215081
  0.2083968119870045  0.8450223525448958  0.0782259848408596
  0.7632061245593305  0.2751159560003553  0.6639698208302192
  0.1229106342714589  0.7492122322730468  0.8454687684281738
  0.9622974171223543  0.3978094921874898  0.0372160370301968
  0.5274421388366104  0.1524291626107790  0.5847870064736405
  0.6301436644285369  0.8221577237526569  0.9616825601019761
  0.2188451779858082  0.9571777245816352  0.0793308402223206
  0.9897526663691225  0.0410150232648320  0.2868531506269923
  0.3996715594651696  0.8288405406344028  0.5580423231774899
  0.6206920142188347  0.1612787195652468  0.5295108125351232
  0.2819168112877704  0.2073602289912027  0.0439917739167654
  0.6527667664160109  0.1006350379772168  0.3937188843589902
  0.1139129416973482  0.4050498700651136  0.1885855182712230
  0.9877274260878947  0.7826006074356011  0.4297983040549346
  0.0788121896705562  0.2453940265848228  0.3715899666154517
  0.9638753342794232  0.6899512620541416  0.0360351232897480
  0.1146842260489302  0.6429134103772427  0.5565727569269898
  0.3690074961238936  0.5917355402730314  0.3920128701530500
  0.8556542914619697  0.3057371189407086  0.3700158394740125
  0.8562389757423692  0.0919105684307924  0.9848710494570080
  0.0461700636020096  0.9584115952227098  0.8387275512868401
  0.9022382746893595  0.8331636300814504  0.3737932537424389
  0.2890831514619790  0.7765879273092264  0.9120424387019794
  0.2762968586170087  0.9491168517408838  0.8149257970051503
  0.7669865881701512  0.9179939047862368  0.6844456264349709
  0.8855100304074033  0.6208828542629050  0.1995430764658634
  0.5565089132996739  0.7225375174702572  0.5032626660779007
  0.9636099353989552  0.5656841287723714  0.6114175753255059
  0.4642191199921781  0.7265021407119694  0.7563633474675516
  0.5958228522119350  0.8593084970567764  0.7546778188885060
  0.6056455423379068  0.4238805779866177  0.4337193918448040
  0.1628467266072140  0.0847071194483847  0.9904380980522305
  0.7866864051406135  0.6664282328201447  0.8691981972655676
  0.6242101412857162  0.4092007973086642  0.5962031051552419
  0.1464057606116391  0.2617392932613948  0.2482603181765257
  0.1449294540677288  0.5142048736018997  0.1851567087437599
  0.8431445341981652  0.4959083077980713  0.0670499433419133
  0.3363358436723883  0.9250430659928455  0.0526124278875048
  0.8499374219075593  0.4020959967996528  0.2293400250712651
  0.5803320189923099  0.8290323803836305  0.5183095197017871
  0.8454604163535037  0.5598327588836851  0.4518726266824492
  0.8724671384956503  0.4246165871815356  0.3437996269291957
  0.3141962443608770  0.0160733474959712  0.6125188748027069
  0.4671081117511278  0.5679838793698728  0.1300210376411620
  0.4299541438615974  0.4350671128965419  0.4130801687677592
  0.0172004968500943  0.2607892478896745  0.6287231820150123
  0.4555436197344404  0.7765632619040692  0.2402466737532434
  0.3262389322292931  0.6280230873489592  0.8146615112466469
  0.0497898580484686  0.1945839057396149  0.2576818697442830
  0.2546851753012300  0.3724689018430508  0.4641682225897540
  0.9258566592441320  0.5394720746255630  0.7130500722168737
  0.0882252366482795  0.4770598325985829  0.5438258997275887
  0.6465508999560742  0.2267829728460546  0.7736074151644403
  0.0284836017826523  0.9668388678786836  0.1161410881497161
  0.5054042123878910  0.0921560707750539  0.8760573717153127
  0.9526367430543444  0.4980691126224784  0.2937405778214557
  0.7191081090144137  0.8276330412578999  0.8435008330658137
  0.1497617725535716  0.9654356392114747  0.5960292785596955
  0.0611019073347036  0.0289631102140656  0.2038321653357239
  0.1524630621367655  0.1249228456991585  0.6598976472637736
  0.1288842685096957  0.8379991678278421  0.5743381559721483
  0.8228750519352505  0.9554573848582083  0.8673345271304800
  0.7208223651194342  0.8145094031476093  0.7038125416387959
  0.1089937471592359  0.6642094749784615  0.3765566222294179
  0.6205406780789261  0.3141537001725792  0.5426650113598983
  0.3526763626725221  0.4968262003685107  0.7124299272152097
  0.1677418691200274  0.4475752920840717  0.4686142624147792
  0.5750484674992481  0.5484495601492696  0.2827811429982482
  0.0676725736402785  0.2844820662203399  0.8191554471472327
  0.4935682579442666  0.3568643744661235  0.3582350432530835
  0.5430983504456265  0.1400356213591402  0.7017829782487779
  0.4087629739799699  0.3727287016586513  0.5721859932336033
  0.1818534128879141  0.2525721265259191  0.8105166724503966
  0.7869779577412718  0.7448816565563148  0.6354506823715483
  0.9988533558527443  0.2366833773596321  0.0929152023508048
  0.7729885146227716  0.2303383696082390  0.3367446341928597
  0.0629848260691486  0.6821368462543878  0.9919768782736770
  0.5330842440226239  0.0185340332311650  0.7989283087010943
  0.7332972842290510  0.0609735209916223  0.6634522423738952
  0.3969527522357906  0.3301098800136863  0.9757470708143918
  0.3880727426319632  0.0462504822806225  0.2326255000887480
  0.4796780413074849  0.6158509009651590  0.7752191392177171
  0.3666578258249510  0.7039664425503973  0.8870009586268446
  0.6253949408489478  0.0455771819258337  0.5317739966556791
  0.0497836011511787  0.5149876140077578  0.0066160542224061
  0.7728087884947539  0.8999432980559559  0.5282440127940107
  0.4159376814849768  0.5085588366712530  0.6120526516523163
  0.8497014365519491  0.7033091190946011  0.9503449201001618
  0.8013791523476730  0.5832085592582252  0.0173396177014338
  0.9966221235257730  0.3655601488417399  0.6643477892459612
  0.5752660233675760  0.2635663182911425  0.0268352095385405
  0.5631794245107998  0.5761472981254747  0.6967359117714714
  0.7076729858271402  0.3161903614456638  0.7992501631862501
  0.3719859967618828  0.7469030205811342  0.6967609932259833
  0.9095133045714028  0.6101388741645145  0.9798536602239407
  0.3244739903664683  0.8222524648375713  0.4766795494204779
  0.5987924174219585  0.4069864717530108  0.3252062210656219
  0.4753418632980523  0.3100298030174563  0.7898630745566193
  0.2758050347429632  0.0550877728434811  0.3369214188553324
  0.9016134507726425  0.7238794568932506  0.6503521869701521
  0.3542519498059847  0.3946071985733730  0.0531825232344081
  0.6688919093871011  0.9506671184992845  0.7381233181093231
  0.0500123768494448  0.1423039899521394  0.0677587301043900
  0.8783273161042190  0.1460334017098743  0.6900390794920191
  0.1199279088597855  0.7349787345905332  0.6166697657586466
  0.5055374132679357  0.5377583106944762  0.9069995952210670
  0.0401797903554353  0.4204272707962738  0.9498635759071238
  0.4707828352193596  0.0232188327253920  0.3037157436793052
  0.0909748757339592  0.8764184176161907  0.1038886025680692
  0.0295527178485524  0.7733110405955130  0.9093055008124625
  0.4456643995694190  0.9731633301704741  0.5758116266354043
  0.2596367358693558  0.6130652904801969  0.2657485250407313
  0.8858520390226405  0.1462837940538637  0.4479177409980680
  0.3961121339570096  0.9725635494022478  0.4639576511098751
  0.8686132702891766  0.1360702009563048  0.8206823409279528
  0.6462434532207497  0.5803139684918277  0.8122782001051018
  0.1409785558017073  0.5268954686529155  0.0699883901768837
  0.8575077743319368  0.8712236486897489  0.9325559949160502
  0.4058117040658596  0.5398341495227144  0.9557631626476022
  0.7818571800145780  0.3410176227892718  0.0201521053880391
  0.0685119264291407  0.5882241638710161  0.9265828217707441
  0.4153625064716004  0.0103576691941365  0.1292108521232125
  0.6188084779306161  0.9100025923304801  0.6310795565040842
  0.1797777602330530  0.6219170162920472  0.9245156139746458
  0.7900225861191804  0.1345799200435371  0.3953092785273610
  0.6870769237571597  0.5470958870295001  0.2794684872901838
  0.3277057920887904  0.1547606419660166  0.1645743242865668
  0.9202111486765809  0.6578900754475997  0.5672191883382793
  0.9720463870286508  0.8005107026191857  0.0323805663797128
  0.2172618119950902  0.6215361353611942  0.5222996756519223
  0.8840005030802266  0.0620424601021812  0.2467091305018078
  0.3129159433956817  0.7770718531467722  0.2827737386898628
  0.9080140059741698  0.0474449696344423  0.0777305587201127
  0.3879622647953576  0.0462442674018086  0.3797020581694625
  0.4842399781689463  0.9186943984274438  0.2813104815302898
  0.1189202434739428  0.1228715287921074  0.2046518183358998
  0.5469392841247083  0.9162923843334927  0.8330613709379168
  0.6572345591395309  0.8554826447972255  0.2293609949489625
  0.8115925680921474  0.9954757433543497  0.4895732920212518
  0.7328028347782964  0.0744499977599844  0.4804809937243166
  0.3078757113492211  0.7359518261443335  0.1026377009597900
  0.0432805076030776  0.8471776493599290  0.4998049983175331
  0.2289932117232223  0.9827065056516028  0.1889553180959950
  0.6429442488018584  0.2646452115375377  0.9395211509853009
  0.4197619003002505  0.1378376324493368  0.4298181497945369
  0.9388335502126466  0.3369991647527467  0.2046791650807348
  0.0159985275075449  0.8002112863961621  0.1332065189061447
  0.8528065969701537  0.1318040574151298  0.5564815371917583
  0.2655630033697590  0.0770071454802261  0.4538287161511598
  0.3479028898979569  0.6386745800564265  0.7059534302482900
  0.2615582142611778  0.5639732112443056  0.3827427206782886
  0.1553407953600512  0.8552401406410578  0.8184844778748704
  0.7413641740577502  0.1333506218791600  0.5779124476672801
  0.2596034075897169  0.4935724547512566  0.7987507567739340
  0.2397523666772790  0.4871206855594999  0.9689209392169216
  0.0751239554283443  0.5631582801366610  0.6216081352694354
  0.5078652095568319  0.8133974066456019  0.0997963299937483
  0.0329011854806858  0.7376008644235599  0.6840279408535619
  0.9136292181169479  0.5122037958143909  0.5226847650688348
  0.6470693929444058  0.6002215068146837  0.4257934901477144
  0.7769551697018757  0.8713182397463505  0.2468032365224795
  0.0234335278631803  0.0395805098548911  0.0265855602769120
  0.0953161541321845  0.8952131025279840  0.4163300701108057
  0.0193794040652035  0.3944323304990852  0.5546681780480791
  0.7971419353372605  0.8106733641624680  0.3383534560120515
  0.7443592393225984  0.8375739387282416  0.9562003040936479
  0.1637070186648265  0.7450010120956213  0.2083131799427599
  0.9589530309265043  0.6839454028196834  0.4654669648134726
  0.5761481689020985  0.9347325560217751  0.2180619358391152
  0.0074858423044095  0.3953059659307380  0.1441582990388629
  0.8748107110063272  0.8545615101586901  0.0481385160977868
  0.0024920952112118  0.0362563204064135  0.9143749564501172
  0.3705929814078032  0.8775857979789790  0.3068857810036003
  0.0679389565505661  0.8268533504916561  0.7421978847526268
  0.8823295977832076  0.0256452232211353  0.5708176587502771
  0.2554979523318847  0.4273285501882387  0.2476746736724590
  0.7996494861506135  0.7679363460231452  0.0228754343166813
  0.4685827114690474  0.7759671346628331  0.3532081533616815
  0.0664810564554628  0.7735692219232255  0.3554434673827321
  0.3377216403123374  0.6551898659446743  0.5406397668037632
  0.2655597280811951  0.8332859157464569  0.8179610700640572
  0.3869608037723323  0.2126832374345919  0.6488020567050692
  0.6291533002595013  0.7246151400108151  0.1017749932222802
  0.8329467104578396  0.8516413028080799  0.6157982991503580
  0.8585843773271775  0.5059838217872671  0.1823649784654834
  0.1720745961706911  0.0066170434865827  0.3574146828233803
  0.0808014728069860  0.8426117402391358  0.9890390252736079
  0.3896351897379486  0.5616948882518950  0.5030269811034840
  0.5975024198710792  0.2486260355724467  0.6784180034093905
  0.7130206331117120  0.7388136263596479  0.5486096830856891
  0.2645335474032197  0.0681657587376332  0.7846297489394574
  0.2612877012078213  0.2404211578760806  0.2648632798119783
  0.6911490142835505  0.8335550631196507  0.4930365093740295
  0.0781211403994886  0.1027989423706244  0.8651292945099353
  0.2585046373264848  0.4494409499738463  0.0713115747185304
  0.2010568032822689  0.7067401931019284  0.6847856314824247
  0.5600010241183531  0.7345285262730614  0.8818070751863917
  0.5098478910346999  0.1715735404596654  0.3675628110033797
  0.9248420062690513  0.9289858043610036  0.3269336325547408
  0.4276970260996551  0.5236240276983198  0.2309638446437173
  0.0217496817656311  0.1241437037087267  0.3530987270141537
  0.9278810540163899  0.2417933226788436  0.4876866247172369
  0.2951472372782369  0.9843672440169301  0.5087512528906820
  0.2230518109650812  0.0316430514537565  0.6731305854780821
  0.1887497708188518  0.0848126292691778  0.8713518311849873
  0.8785051802959601  0.3157956387670848  0.1054732209616172
  0.2208345733631915  0.7104390321627009  0.2986814911298521
  0.1036916090844084  0.6341126214014216  0.0900149043184211
  0.6555115015222626  0.3679297852923763  0.8836124665595413
  0.1597294057711595  0.4301023290148889  0.9206718023115655
  0.5633607436064632  0.0123460410331719  0.6231473453181224
  0.0805735671202130  0.2966754523719643  0.5443150512491105
  0.5705001460263773  0.5715050315375175  0.5793679194040410
  0.7072789134693841  0.9524405650181709  0.8415902593140118
  0.9324891583695077  0.6681247904096712  0.7483260601086309
  0.1559655707551028  0.0912301000383511  0.4862701369664983
  0.7256018633982052  0.9363118446642409  0.0090592254685630
  0.3498418067787447  0.3770260474770216  0.8866513470790466
  0.5606977375796682  0.7276409001239594  0.6770727852765113
  0.3022814608987347  0.1839908001091239  0.3836206940807308
  0.2857536891934906  0.2643100949498960  0.1497051462304784
  0.4962659445042296  0.3500858644788445  0.6850903465838936
  0.1931662020379796  0.3298624913339150  0.3734856861801928
  0.5233938080121658  0.9608699804785824  0.1213769619728979
  0.2451183548858956  0.5245289621837866  0.6724709076487224
  0.1251980328349351  0.3307425191038023  0.9866918226018802
  0.7464418506148851  0.6589507157863749  0.7000397126550286
  0.1513256990867874  0.1653368191719455  0.1018924579112865
  0.0923571234991166  0.4304574298711701  0.6797113252507158
  0.2648988952881560  0.8173608864211481  0.1778046818937233
  0.7367074310585002  0.4584945884725342  0.1073665729023485
  0.8304626904874163  0.7123965641794749  0.2407101715075082
  0.7946279766608279  0.2644819106847260  0.8446413827013531
  0.1590199378431386  0.3754950482990658  0.6024818243036522
  0.2182278297386501  0.3818656444010088  0.1523191053182176
  0.8336740526588042  0.8063082375215176  0.1689260692957135
  0.5166970648483438  0.9020550090752717  0.4534308428649875
  0.1331185794736247  0.1137298414648222  0.3765488885063817
  0.4378358490097143  0.6735651644978840  0.1169097046384424
  0.4189843940115004  0.1222231983870229  0.1044721004073751
  0.6916845847428251  0.1177147257129279  0.2898444603314523
  0.3995629415987958  0.5409111603648171  0.8111508247326589
  0.3800913947938254  0.1069136302641253  0.6062589126695124
  0.6318807616968211  0.0321340516697571  0.2348211744131144
  0.2519909291671190  0.2432841593930052  0.6600676451532865
  0.9531625645955172  0.0632421769667207  0.4272185287367178
  0.4056903575274604  0.8680874411681049  0.4149529601601587
  0.4492806444022289  0.8834103862967140  0.8734293022425607
  0.1266742533222236  0.9802459950871818  0.0148369880706566
  0.3255765941474670  0.2089252372090580  0.8742505848183217
  0.9891719184187433  0.3181582958985472  0.3056070806173550
  0.6788841979417533  0.5022650490362506  0.4548276943392180
  0.0327807692043829  0.4855632237569228  0.3751300919327131
  0.2589220928843718  0.0936284348330579  0.0460009423640040
  0.6504050959587828  0.6209119718005206  0.1464218152587383
  0.9803930811089636  0.0037966459032303  0.5192988159877908
  0.3268567287567334  0.2996870788675036  0.7241734575217984
  0.9619015369511225  0.6102986523389767  0.8776217346448186
  0.2275555557535744  0.9837185473816539  0.9089577712718069
  0.8429257973069048  0.0394552849108715  0.6776594531387226
  0.6164891953600915  0.3035969410194919  0.1279972379625077
  0.9516358876764668  0.3075637190163946  0.9580931202205385
  0.5741800362627765  0.9955498934061293  0.9651540941921546
  0.5421549751609503  0.3634811468015320  0.8840258176363320
  0.9533472157693255  0.8917066192384163  0.5429172342576642
  0.3116650855011063  0.8156142944569512  0.0168053368564429
  0.8529808194936090  0.9496949871576544  0.7566456431293821
  0.1333523576205380  0.4407695185688828  0.3619171022604888
  0.3998799810756805  0.8596929262386049  0.7113699181655260
  0.8589764658537038  0.5991180360203618  0.8223277593304884
  0.4718046098992012  0.7284402106293373  0.0247159675592629
  0.7449822077991339  0.1993106393192745  0.2174502933556637
  0.0593184690582609  0.0568097413894229  0.6694275397396749
  0.7088915124494677  0.6419223208364510  0.3408395817769927
  0.9486936628149042  0.8310762086357513  0.6450942409842131
  0.4360591403746373  0.1426543098288310  0.9965614079899737
  0.3243558460119597  0.4834983909508815  0.8975154157280987
  0.9450674705899473  0.8400030741698897  0.2092248988225379
  0.8904171046080304  0.4335668875823441  0.7416535814305769
  0.6062919458093626  0.8574610589906080  0.0642005294181473
  0.4878682565061038  0.2710938733588460  0.4274307858745269
  0.1389710714599282  0.9651190755441283  0.2546039535157015
  0.0188597318246932  0.5293573029731187  0.4748497550553086
  0.6210951412875307  0.3021244001083511  0.2834455629937447
  0.6562152307951696  0.8966826897128630  0.3374149418954298
  0.6234211187119744  0.9201989553570435  0.9072376224605591
  0.5229305259500334  0.4522150110896609  0.2511524224888552
  0.6765710210945109  0.2361840107603897  0.6024961831370792
  0.2471039678709426  0.5208938528410791  0.4871515165162030
  0.1401446303557814  0.5264522560356035  0.7207853223530166
  0.4883513734948051  0.2550308688460232  0.6184723544625781
  0.3656922643077151  0.2250055489581244  0.9748506509020831
  0.7634517165086164  0.9998639169603404  0.1684532741751517
  0.5073800545589150  0.8325861550613347  0.6935305711651154
  0.9283379673267133  0.4064913479271743  0.4975570625439472
  0.6079692594045050  0.1970937395944474  0.4234151529737583
  0.3367795053585986  0.9044554712762775  0.1649749320257120
  0.8974860286537489  0.3079696980900050  0.8556309483901727
  0.0770501340499754  0.0422238379367352  0.5570636413475718
  0.5124738287521258  0.4312186938974709  0.4938995311069230
  0.0512765603141558  0.6257788243059512  0.7248272808322860
  0.6407331076915042  0.6646830871113877  0.7350553141116044
  0.1914104776875455  0.2182638086505874  0.4035233859378742
  0.9446521360522027  0.2032104808639062  0.8542354839477947
  0.4447141154380369  0.8725570104956109  0.1819543973581956
  0.9557721201991344  0.1515684476057262  0.9508186133777885
  0.7082295081985726  0.4496639299451113  0.3279447479039429
  0.0961922143024033  0.9725178925023090  0.7366917906930447
  0.5694139074287925  0.2458391301310011  0.8472291917496877
  0.2804426948067782  0.3407087158228627  0.3109872338726420
  0.8844318361964669  0.7640269710142281  0.7914197118040888
  0.7724523124646736  0.0187818572754457  0.9503847294127367
  0.9567642435019466  0.2187880714453369  0.1976786401083650
  0.6393807447676528  0.7928887686002378  0.6273690026537031
  0.5465465826212217  0.1533889434243598  0.0262841762545365
  0.4449944015004806  0.6030497003236858  0.6591863867556459
  0.7822976407445721  0.1481392234390736  0.8920249855951474
  0.2623838321372098  0.6282280864179348  0.6360630284414716
  0.0858143007202105  0.2123204694282372  0.6978162104400272
  0.0518739372546660  0.2748446689910784  0.9270427922741585
  0.4187020679302539  0.8146512711488878  0.9774619142083628
  0.8608455848756001  0.4158262163991618  0.9937879534006063
  0.7130812392537458  0.4130584823854846  0.9708365217704786
  0.3662226103729453  0.1017164557731171  0.8263749078323462
  0.6607672535438381  0.4648561768148119  0.8012722170479665
  0.0052736708924432  0.5448939410283883  0.7977509635700120
  0.7665391827597143  0.3907571300721820  0.4902588201443899
  0.8252984754966852  0.5148494167563594  0.6079246494689257
  0.7605396624637447  0.3560754131592699  0.2907822263085731
  0.9768834775088822  0.1067296332465042  0.7267074224084266
  0.9765328374149159  0.4955268507741458  0.1795086358506929
  0.2373296218213390  0.0889918047888770  0.1603324545243914
  0.8927313331505016  0.4087531883747094  0.6294980759257044
  0.0771192307247908  0.3172112011161899  0.0873504555511064
  0.2185376276170546  0.6630727962563279  0.4106886194400966
  0.3157004095831709  0.9718971932346621  0.2658299953860990
  0.9714450420153103  0.3493962547599306  0.7777929305942480
  0.4007079349498842  0.0583435067820804  0.9315554177159425
  0.6655485551534285  0.0460239496979122  0.1298533624952192
  0.5257071028791310  0.4305453868568584  0.0601450776173795
  0.7507906016062172  0.7368198413191747  0.1160516442078746
  0.2838279631635380  0.3088028314967579  0.8252611248380365
  0.6818252730361501  0.5766021886449925  0.0474252573638441
  0.6986197229557171  0.1235293958592543  0.7689387317800808
  0.7949296627529921  0.6297428054863845  0.1234267217103784
  0.3644077736651432  0.3459268029733887  0.1483653864566951
  0.7530775616420766  0.2492619446088767  0.9581987207554119
  0.6250006792294045  0.9688038202557628  0.0551905903926471
  0.2177164348060916  0.1888915816900869  0.8951298445185729
  0.6742746532344448  0.2698902913032226  0.3753565872937464
  0.3832890800686777  0.9254727758644815  0.7963049325626186
  0.1455848850131975  0.6672427266076889  0.7699477179188179
  0.7875458323819861  0.4699439759799103  0.4128681856100160
  0.8265111785353808  0.4961532417677521  0.8537598570406039
  0.6420260553078139  0.6521932923962482  0.5237050541623756
  0.3500875389407762  0.4505842948352010  0.1968318051700528
  0.2066747003944287  0.1349283606996872  0.2825982137600045
  0.0983193084995293  0.3559232671847724  0.2876837783144999
  0.4619027905098005  0.3057926346411294  0.1110403817403174
  0.3755705754585592  0.7080629408926467  0.3564304642681382
  0.7550786020602056  0.4270884039366810  0.5953454244530960
  0.0823493026032709  0.5730371956751968  0.3130302001661981
  0.8926507892335953  0.6370232193730652  0.3890950034851536
  0.1278813003324299  0.9195342677890376  0.9121792064073996
  0.3723566320260228  0.7147198582460974  0.2019437291130692
  0.3976169881771392  0.6485728719352519  0.9760572957526895
  0.7097991214856754  0.1474363592083452  0.1167371189826776
  0.5455876057672869  0.0632916256322691  0.3811337721432110
  0.2003005255849919  0.6927414894909524  0.1151235232856969
  0.1509902333626225  0.7582080315867821  0.0217652106568338
  0.7032177010095915  0.3004500237435551  0.2035631691275321
  0.9559179492978441  0.5350292495965445  0.0654798555245453
  0.1816813240034554  0.2286168388368040  0.9936644390563175
  0.6036124406682339  0.1857642336112940  0.2703051078680412
  0.8084980046308021  0.5620754861070715  0.7156342825867458
  0.1648205648073442  0.2716620469548903  0.1405511976131046
  0.0739518101112289  0.1687590345259354  0.9575691326948800
  0.6165507698242898  0.3700896617847071  0.6978261866000262
  0.1200169207175197  0.5145518180995986  0.8406993019177693
  0.8685150813176892  0.1742380166696550  0.2716313051498455
  0.5095216650654559  0.3157156238409501  0.5256393246135822
  0.8402936827636315  0.2081116190313759  0.1481535353293362
  0.3766789468983968  0.2565131372781186  0.4440788924999396
  0.5556259086625631  0.6235932581222693  0.8579642225100086
  0.5063239443775164  0.4557446154890679  0.8280856490286344
  0.6140950450473169  0.4909802039550337  0.9160606011375958
  0.4266576071674308  0.0234063499979491  0.7689597640628649
  0.8309851195800114  0.0877608188531771  0.1487088099653726
  0.9728049696350958  0.3901331146214289  0.3947626068326343
  0.8700633697640271  0.9423623767325778  0.2259798031913989
  0.1382660817545973  0.8592958276433240  0.2060133478042261
  0.3491998486459762  0.4490985850394615  0.5066807566412588
  0.1124123308344702  0.3862659589962252  0.7808476107761333
  0.5324854909080643  0.0129517235788392  0.4763246277696440
  0.8706677949125863  0.9992590629524912  0.3939494206743683
  0.1918241875422240  0.5117989481295865  0.2964750332402942
  0.5369977535116197  0.5520447785246345  0.0251008743993047
  0.6387359824156937  0.4689564908772244  0.0384419649514714
  0.8974774946559591  0.0416700497775726  0.8710164358077780
  0.3687642366727173  0.6212600545068051  0.2646292363458267
  0.1577531156742536  0.3004001935700480  0.6966467754222635
  0.7062205766220736  0.9728825237740362  0.5914795399677243
  0.2693918545381100  0.7876231886368718  0.7150353596309674
  0.5461813762986041  0.8689076963030707  0.3542779621567621
  0.2152133102175380  0.5971585677649852  0.8237538667368786
  0.5396090931038161  0.5883385993946131  0.3886593086052130
  0.6268476077844295  0.7531725665118435  0.2462572980837163
  0.6054249519177821  0.1942575444703001  0.1537388380384520
  0.3225574203755701  0.5298008510733913  0.1189370191147854
  0.9377936714180579  0.2185647105095621  0.3508873862041944
  0.0534185312662994  0.6329083897531776  0.4667810042476815
  0.3518024999735520  0.2739632035827967  0.5541722113668691
  0.5354214377337623  0.3738398300480004  0.1616329591475258
  0.4614071753097602  0.1962106724294888  0.2637838213001881
  0.5391989110834564  0.7017118856248984  0.3968024232842497
  0.0593451798716561  0.7083684800560970  0.1791943940294960
  0.5067366182092623  0.3038570078378133  0.2567243808007177
  0.4466379781269178  0.5257419763820211  0.3492530262941380
  0.9257356675139231  0.7608005240162311  0.2862292264683151
  0.1671974192333312  0.9665121639468681  0.4699375043423993
  0.8539652281899570  0.3263088444738491  0.4842995509328202
  0.8208685630465444  0.6403227185928099  0.5249685929110571
  0.6949962744236901  0.0735447517176023  0.8749964437795514
  0.9120610346757094  0.7796983678895297  0.8975297235252842
  0.0084070272649897  0.4367977245674085  0.8418181753898715
  0.4134640192442165  0.4028373376682209  0.8026792114853697
  0.9702520993242146  0.6335906775000054  0.1297231492372228
  0.5072612906895235  0.6790645749356796  0.5953617093897480
  0.9447503166872511  0.6085271692743748  0.2968947641735863
  0.6366730053704150  0.7284632600194303  0.3522069315905752
  0.6318005912453653  0.7631918414463997  0.8016803756423079
  0.9552159791890645  0.0070982835158664  0.7728462025654749
  0.3241000074654530  0.6322134300663587  0.0560583236206618
  0.2026635033882062  0.9375486097306944  0.7299960654430647
  0.2425541753242157  0.8710953397888246  0.6459945671888174
  0.5024008911177447  0.8766824995540440  0.5910842540421344
  0.7299046238125929  0.9781794808814037  0.2788999275138055
  0.9142664858903500  0.2239246858530071  0.6031949246714770
  0.3120354936838300  0.7162053957731555  0.4492480414213149
  0.3838411935401012  0.3874928286336043  0.6882106465894567
  0.5674972799149701  0.4691746715450180  0.7365447289640459
  0.7771703895346179  0.7409719715161021  0.7866133746140720
  0.4576729211783725  0.0921185928469694  0.5223159986048305
  0.9164540766808329  0.9405530022159500  0.1188123619771850
  0.1927353063143280  0.7288218003972239  0.9264704805311318
  0.2175620504071474  0.1663363263311053  0.7430598910506098
  0.2321822066300588  0.5897756423960765  0.1624538080451272
  0.7298400647804871  0.3751616056150944  0.7004121286001045
  0.7042301207851522  0.5998111562299748  0.9026623737902260
  0.5375146837934733  0.7241613366099898  0.1819482930238667
  0.2242903654621653  0.5875414563016533  0.0165959353435144
  0.8045347983771534  0.6963484611592782  0.3585301488114531
  0.6946778298782111  0.8410467146900765  0.1273613442347119
  0.8454658967843599  0.3114358712917900  0.5999142234443927
  0.3561385977786384  0.1532239440133188  0.2762561881644570
  0.6745153542186301  0.3437532327841131  0.4560982729720680
  0.0605194709704435  0.8988265365681393  0.6554440050559606
  0.2105611075350677  0.1581252320407072  0.5678859305638906
  0.5014230568340056  0.5456485688905461  0.4907624196758606
  0.4567541506702900  0.7671916111231999  0.8596253211324191
  0.0463126095012991  0.8456732516674396  0.2705084086104976
  0.4610925146041209  0.0561431401683787  0.6698686765237895
  0.4178395078129846  0.4864241814328153  0.0529190363961007
  0.7604791986297058  0.5091682594198750  0.9384667626475741
  0.3186304829690693  0.1546108418004648  0.5226467604350047
  0.7401451898167672  0.5437143344643269  0.1806778021493063
  0.7406525925025849  0.6046950903316574  0.5933882117783937
  0.7998816652923251  0.7379424487228174  0.4686621058092807
  0.5178721542953881  0.4559357325501973  0.6147156821838864