generated by phonopy
   1.0
    21.6684856414789984    0.0000000000000000    0.0000000000000000
     0.0000000000000000   21.6684856414789984    0.0000000000000000
     0.0000000000000000    0.0000000000000000   21.6684856414789984
Si
 512
Direct
  0.4856676039910204  0.2041435267339454  0.1498980801009117
  0.5302304486202656  0.0950615734745406  0.2367791169602074
  0.6123421689810871  0.0515457073271188  0.7230547580932509
  0.2396028288548400  0.8811393388054193  0.5246875657259273
  0.7757970191266851  0.3620879195439794  0.1431107017710098
  0.9121076840660806  0.2293490431357475  0.0231077611220031
  0.0012094776440054  0.8577802552062773  0.8236547326499564
  0.8649270494565060  0.8343019038413866  0.4846962693862342
  0.0330165251438154  0.1735196513219074  0.7937367762137006
  0.2483644794661063  0.4494106813734599  0.5901843004077993
  0.9641935069039094  0.9696556217055652  0.6573251700333183
  0.0550112935051323  0.5740114338715763  0.2033975820942466
  0.2112436187484310  0.3974393562534205  0.8281230635677697
  0.9002766096838778  0.4235436657103350  0.8870182246239093
  0.7784140825666420  0.9116533446118585  0.1033660656371239
  0.6136841195498456  0.6228321141251850  0.9714357282575355
  0.8052853295917003  0.0505682335731510  0.3234184791794826
  0.9190924657584294  0.8611353485132723  0.7475119060419602
  0.2083968120783283  0.8450223526322863  0.0782259849602971
  0.7632061243437300  0.2751159560140644  0.6639698208540518
  0.1229106343270935  0.7492122322043722  0.8454687682975311
  0.9622974170266034  0.3978094924852332  0.0372160370837760
  0.5274421387791456  0.1524291626438696  0.5847870065349441
  0.6301436643727020  0.8221577235755497  0.9616825600170953
  0.2188451778575669  0.9571777246237044  0.0793308401563706
  0.9897526663938330  0.0410150234253682  0.2868531506635257
  0.3996715595288138  0.8288405405857033  0.5580423231931404
  0.6206920141279770  0.1612787196228833  0.5295108126574279
  0.2819168112232285  0.2073602290789612  0.0439917738473578
  0.6527667663750669  0.1006350381912882  0.3937188843635853
  0.1139129416485152  0.4050498702979693  0.1885855183833430
  0.9877274260238853  0.7826006074176430  0.4297983039470865
  0.0788121893982402  0.2453940265362186  0.3715899667755868
  0.9638753342310332  0.6899512619704542  0.0360351231413609
  0.1146842259090694  0.6429134105635901  0.5565727570005103
  0.3690074961100618  0.5917355403314165  0.3920128698560891
  0.8556542912837267  0.3057371189890087  0.3700158395013451
  0.8562389757943745  0.0919105685680174  0.9848710493615481
  0.0461700637784172  0.9584115952194409  0.8387275511034062
  0.9022382745675693  0.8331636300371368  0.3737932534708774
  0.2890831516251322  0.7765879272450018  0.9120424386109210
  0.2762968587152229  0.9491168516484459  0.8149257971182478
  0.7669865886820006  0.9179939046553111  0.6844456262154583
  0.8855100302586649  0.6208828542357622  0.1995430763350693
  0.5565089134385560  0.7225375174136408  0.5032626660411298
  0.9636099353762606  0.5656841288709655  0.6114175753629167
  0.4642191202153946  0.7265021407169345  0.7563633474239153
  0.5958228524551159  0.8593084968902265  0.7546778189397805
  0.6056455423686724  0.4238805780545399  0.4337193915833418
  0.1628467266321576  0.0847071194312500  0.9904380980006167
  0.7866864051021251  0.6664282327887603  0.8691981973475741
  0.6242101413044582  0.4092007973409237  0.5962031049866445
  0.1464057604119701  0.2617392933289734  0.2482603183556609
  0.1449294540146965  0.5142048736496773  0.1851567086750591
  0.8431445342215800  0.4959083076567710  0.0670499432851514
  0.3363358436383967  0.9250430660569640  0.0526124276987981
  0.8499374218710795  0.4020959968769135  0.2293400249240188
  0.5803320191420636  0.8290323803011413  0.5183095199151940
  0.8454604162497115  0.5598327591699925  0.4518726268275621
  0.8724671384265734  0.4246165870610000  0.3437996270009612
  0.3141962445150078  0.0160733474607500  0.6125188749268501
  0.4671081118514532  0.5679838792901865  0.1300210376166816
  0.4299541437350510  0.4350671128951237  0.4130801690191431
  0.0172004967423121  0.2607892479496391  0.6287231819483144
  0.4555436198912204  0.7765632619507280  0.2402466741000062
  0.3262389323854745  0.6280230873402326  0.8146615112290622
  0.0497898579532587  0.1945839058541846  0.2576818699243360
  0.2546851752093722  0.3724689017899067  0.4641682226411536
  0.9258566595691838  0.5394720748075348  0.7130500723284776
  0.0882252368325699  0.4770598328041633  0.5438258997947074
  0.6465508998241176  0.2267829727998051  0.7736074152763550
  0.0284836017823996  0.9668388677620730  0.1161410882652532
  0.5054042123444027  0.0921560705796595  0.8760573717720728
  0.9526367429752405  0.4980691124495462  0.2937405779120876
  0.7191081091865806  0.8276330412333444  0.8435008329661273
  0.1497617724277838  0.9654356392208545  0.5960292784910921
  0.0611019072252432  0.0289631101667583  0.2038321653787308
  0.1524630620900135  0.1249228459642926  0.6598976473392605
  0.1288842684186504  0.8379991680197119  0.5743381560888564
  0.8228750519784903  0.9554573847296770  0.8673345271163807
  0.7208223652891964  0.8145094031321098  0.7038125417314360
  0.1089937471122752  0.6642094750425216  0.3765566223214231
  0.6205406781820241  0.3141537002091963  0.5426650111866665
  0.3526763628420836  0.4968262003465773  0.7124299275385318
  0.1677418692112985  0.4475752922379350  0.4686142624506208
  0.5750484676354807  0.5484495601614168  0.2827811431526172
  0.0676725736887154  0.2844820665575292  0.8191554470805044
  0.4935682579200638  0.3568643744727374  0.3582350432765943
  0.5430983502365609  0.1400356211461583  0.7017829781933540
  0.4087629741404619  0.3727287017432948  0.5721859932580530
  0.1818534130736860  0.2525721264984673  0.8105166724173714
  0.7869779581891955  0.7448816567029196  0.6354506822847568
  0.9988533556830177  0.2366833772072918  0.0929152022649290
  0.7729885145973435  0.2303383696531509  0.3367446341627670
  0.0629848260455495  0.6821368464076045  0.9919768780436397
  0.5330842440401647  0.0185340331164753  0.7989283087595869
  0.7332972843419046  0.0609735208786605  0.6634522424205276
  0.3969527521169118  0.3301098800536728  0.9757470710856700
  0.3880727425778954  0.0462504823020407  0.2326255001880557
  0.4796780412420468  0.6158509009807887  0.7752191393480234
  0.3666578260091500  0.7039664425653183  0.8870009585182013
  0.6253949408047116  0.0455771820149783  0.5317739967302473
  0.0497836013887923  0.5149876141334622  0.0066160539314708
  0.7728087887021897  0.8999432978828452  0.5282440127814763
  0.4159376815528587  0.5085588366872165  0.6120526518193871
  0.8497014365380512  0.7033091192413770  0.9503449201870336
  0.8013791524472688  0.5832085590851224  0.0173396174386922
  0.9966221236007026  0.3655601489055777  0.6643477891525514
  0.5752660233808676  0.2635663182511931  0.0268352093894029
  0.5631794244154630  0.5761472978874621  0.6967359119203436
  0.7076729858708841  0.3161903614236161  0.7992501630243734
  0.3719859968558293  0.7469030207543950  0.6967609933821148
  0.9095133045387058  0.6101388740370892  0.9798536600743823
  0.3244739903693807  0.8222524647633731  0.4766795495100526
  0.5987924174985255  0.4069864719920122  0.3252062207799247
  0.4753418630676981  0.3100298028117496  0.7898630744771532
  0.2758050347712449  0.0550877729603510  0.3369214187053593
  0.9016134514029280  0.7238794570115883  0.6503521870170609
  0.3542519494155248  0.3946071985932977  0.0531825234266459
  0.6688919098242000  0.9506671184217916  0.7381233179580573
  0.0500123770129690  0.1423039897373036  0.0677587301687237
  0.8783273162411724  0.1460334014694654  0.6900390796784317
  0.1199279090749871  0.7349787347558149  0.6166697658424196
  0.5055374131575823  0.5377583105365439  0.9069995949959060
  0.0401797903967530  0.4204272708388865  0.9498635759646934
  0.4707828351717778  0.0232188326470582  0.3037157437336722
  0.0909748757544924  0.8764184175819218  0.1038886026572989
  0.0295527179515460  0.7733110404954678  0.9093055006122100
  0.4456643997836587  0.9731633300427276  0.5758116265321571
  0.2596367356718592  0.6130652905551774  0.2657485248987996
  0.8858520391747495  0.1462837941138726  0.4479177411462891
  0.3961121339457253  0.9725635494660291  0.4639576510984415
  0.8686132702961444  0.1360702010647201  0.8206823408826615
  0.6462434532818706  0.5803139684765061  0.8122782000718374
  0.1409785558027714  0.5268954689951354  0.0699883900003411
  0.8575077742583644  0.8712236486784692  0.9325559951557010
  0.4058117039366047  0.5398341495381155  0.9557631627029395
  0.7818571796703812  0.3410176226625030  0.0201521053427656
  0.0685119266491283  0.5882241640555637  0.9265828216453696
  0.4153625063912685  0.0103576692481862  0.1292108521641629
  0.6188084780726710  0.9100025921678879  0.6310795566399556
  0.1797777603900913  0.6219170165101965  0.9245156140313685
  0.7900225862208563  0.1345799202108831  0.3953092786932123
  0.6870769238606849  0.5470958869705760  0.2794684872272526
  0.3277057918701861  0.1547606419226466  0.1645743242970578
  0.9202111488714012  0.6578900756061492  0.5672191882480444
  0.9720463869647598  0.8005107026480189  0.0323805661557504
  0.2172618117685164  0.6215361353314278  0.5222996754337299
  0.8840005030287921  0.0620424601818237  0.2467091306259906
  0.3129159433422174  0.7770718532399333  0.2827737387964444
  0.9080140059790215  0.0474449696645662  0.0777305586093002
  0.3879622647818885  0.0462442674620083  0.3797020581918664
  0.4842399779517050  0.9186943983709491  0.2813104814340789
  0.1189202433329144  0.1228715287695975  0.2046518185623993
  0.5469392842814242  0.9162923842824591  0.8330613709612854
  0.6572345592436868  0.8554826448064742  0.2293609950024358
  0.8115925680511629  0.9954757433261904  0.4895732921032320
  0.7328028346796965  0.0744499978130115  0.4804809937209882
  0.3078757110413439  0.7359518262460464  0.1026377010559363
  0.0432805076777008  0.8471776492033568  0.4998049981860506
  0.2289932115031179  0.9827065056010852  0.1889553180707616
  0.6429442486662520  0.2646452114238746  0.9395211507684925
  0.4197619003558916  0.1378376323363305  0.4298181498928016
  0.9388335503252331  0.3369991648052748  0.2046791653037445
  0.0159985274074554  0.8002112864422301  0.1332065187192046
  0.8528065970012413  0.1318040573597152  0.5564815371286905
  0.2655630032857630  0.0770071453524963  0.4538287160936119
  0.3479028900197381  0.6386745800598332  0.7059534302525342
  0.2615582142007477  0.5639732112777955  0.3827427206395274
  0.1553407953962123  0.8552401406938280  0.8184844779485528
  0.7413641740103780  0.1333506217144841  0.5779124476833473
  0.2596034075519263  0.4935724549496462  0.7987507566617653
  0.2397523665637972  0.4871206857393452  0.9689209393076939
  0.0751239553441967  0.5631582802290496  0.6216081351757865
  0.5078652095890757  0.8133974063838261  0.0997963301536757
  0.0329011855692385  0.7376008645397559  0.6840279407467938
  0.9136292181449763  0.5122037960788846  0.5226847650929748
  0.6470693930734424  0.6002215068227699  0.4257934901132797
  0.7769551698014636  0.8713182398228163  0.2468032366734500
  0.0234335278461163  0.0395805096993707  0.0265855602999707
  0.0953161543911263  0.8952131021888180  0.4163300699597922
  0.0193794043363470  0.3944323304938753  0.5546681780410465
  0.7971419352601945  0.8106733640428977  0.3383534560147493
  0.7443592392024898  0.8375739385484711  0.9562003041148275
  0.1637070186132875  0.7450010123467655  0.2083131798211420
  0.9589530310967725  0.6839454027180207  0.4654669648072491
  0.5761481689292431  0.9347325560479358  0.2180619358781060
  0.0074858424770803  0.3953059657431721  0.1441582989254868
  0.8748107109140775  0.8545615103500410  0.0481385161690705
  0.0024920952433941  0.0362563202998634  0.9143749564215329
  0.3705929812470352  0.8775857979913996  0.3068857811096343
  0.0679389565085934  0.8268533504628411  0.7421978847807171
  0.8823295979301471  0.0256452232336525  0.5708176587236362
  0.2554979521371374  0.4273285501923217  0.2476746736140281
  0.7996494860791662  0.7679363460895868  0.0228754344795463
  0.4685827114232547  0.7759671347245473  0.3532081537456984
  0.0664810564231551  0.7735692218846955  0.3554434672662914
  0.3377216404440506  0.6551898659051485  0.5406397667670260
  0.2655597280928100  0.8332859157785103  0.8179610699261588
  0.3869608035319256  0.2126832371286566  0.6488020566503464
  0.6291533003634679  0.7246151399913840  0.1017749932132959
  0.8329467106061077  0.8516413028963487  0.6157982991279642
  0.8585843773742763  0.5059838218088767  0.1823649782858826
  0.1720745962605549  0.0066170434806674  0.3574146827604580
  0.0808014727145134  0.8426117402756724  0.9890390252777745
  0.3896351897872807  0.5616948881065716  0.5030269810894114
  0.5975024198413801  0.2486260354138773  0.6784180034465636
  0.7130206331804204  0.7388136263553532  0.5486096831488989
  0.2645335475131048  0.0681657587478308  0.7846297490668542
  0.2612877011812469  0.2404211577604658  0.2648632799272664
  0.6911490143119151  0.8335550630544852  0.4930365094675148
  0.0781211403266567  0.1027989424300870  0.8651292944472053
  0.2585046370846932  0.4494409503418181  0.0713115748333916
  0.2010568034573774  0.7067401929988811  0.6847856314965756
  0.5600010241722760  0.7345285263057911  0.8818070753584384
  0.5098478909266759  0.1715735403616867  0.3675628108409331
  0.9248420062558251  0.9289858044273258  0.3269336323997927
  0.4276970260995295  0.5236240279393256  0.2309638446229028
  0.0217496816640512  0.1241437037674560  0.3530987272165071
  0.9278810538642762  0.2417933228747660  0.4876866247447629
  0.2951472372151798  0.9843672439441354  0.5087512530029888
  0.2230518109651765  0.0316430515552801  0.6731305855007479
  0.1887497706825368  0.0848126292235092  0.8713518312254360
  0.8785051804424904  0.3157956388277208  0.1054732210825011
  0.2208345731935694  0.7104390322676688  0.2986814910371982
  0.1036916088976302  0.6341126215226671  0.0900149041407177
  0.6555115013674360  0.3679297850351407  0.8836124664188545
  0.1597294056788164  0.4301023293072465  0.9206718023855454
  0.5633607435691306  0.0123460409809131  0.6231473453817123
  0.0805735670848379  0.2966754522148435  0.5443150511635674
  0.5705001460023073  0.5715050314463561  0.5793679194636608
  0.7072789135007105  0.9524405650247041  0.8415902593851606
  0.9324891585795333  0.6681247902975297  0.7483260603781863
  0.1559655707757333  0.0912300999399502  0.4862701368163509
  0.7256018634453482  0.9363118445305169  0.0090592255555198
  0.3498418067514502  0.3770260476939550  0.8866513472962819
  0.5606977377866418  0.7276408998351627  0.6770727854527903
  0.3022814610060739  0.1839907999693768  0.3836206942597003
  0.2857536890603112  0.2643100950154669  0.1497051462155516
  0.4962659444990611  0.3500858643191465  0.6850903466763184
  0.1931662019905432  0.3298624912085855  0.3734856860946996
  0.5233938079420275  0.9608699804820094  0.1213769620724274
  0.2451183550107605  0.5245289624298112  0.6724709076018014
  0.1251980326835600  0.3307425190588622  0.9866918225510103
  0.7464418508622437  0.6589507159040666  0.7000397126405495
  0.1513256991691641  0.1653368194429203  0.1018924581660157
  0.0923571236426461  0.4304574299662236  0.6797113253335895
  0.2648988953145583  0.8173608864997906  0.1778046821037731
  0.7367074308971810  0.4584945883412037  0.1073665727693092
  0.8304626902154827  0.7123965639691490  0.2407101715294093
  0.7946279766402878  0.2644819106506526  0.8446413826707440
  0.1590199380173835  0.3754950482342734  0.6024818242361192
  0.2182278295324449  0.3818656444083084  0.1523191051833097
  0.8336740525250439  0.8063082375296718  0.1689260694987689
  0.5166970648074599  0.9020550091347147  0.4534308431014313
  0.1331185795801024  0.1137298415788683  0.3765488885002358
  0.4378358490120966  0.6735651644563230  0.1169097047743116
  0.4189843939570979  0.1222231985467356  0.1044721004970441
  0.6916845848553845  0.1177147257533452  0.2898444603432693
  0.3995629416399155  0.5409111603828287  0.8111508250183708
  0.3800913947507151  0.1069136301336342  0.6062589124601032
  0.6318807617149763  0.0321340518529265  0.2348211743581691
  0.2519909292967716  0.2432841593795597  0.6600676450855598
  0.9531625645030134  0.0632421769256797  0.4272185287962422
  0.4056903574256465  0.8680874412379012  0.4149529602112155
  0.4492806445690693  0.8834103861668918  0.8734293022332053
  0.1266742531536753  0.9802459951198967  0.0148369880293225
  0.3255765940300579  0.2089252373115572  0.8742505849487727
  0.9891719183304890  0.3181582960503603  0.3056070809746368
  0.6788841979275845  0.5022650489309148  0.4548276943473481
  0.0327807691592454  0.4855632236140682  0.3751300920722514
  0.2589220927087099  0.0936284349685168  0.0460009424259404
  0.6504050959262287  0.6209119719268642  0.1464218153519522
  0.9803930811586268  0.0037966459104565  0.5192988159691314
  0.3268567287154618  0.2996870788004716  0.7241734576751255
  0.9619015368685482  0.6102986520047973  0.8776217344175659
  0.2275555558086795  0.9837185474137495  0.9089577712485390
  0.8429257973676513  0.0394552847650974  0.6776594529838851
  0.6164891953759694  0.3035969409357628  0.1279972378350394
  0.9516358875409094  0.3075637191731239  0.9580931200977327
  0.5741800362884106  0.9955498932299688  0.9651540942953004
  0.5421549750256861  0.3634811466636055  0.8840258175932666
  0.9533472157295242  0.8917066192326680  0.5429172338560658
  0.3116650856788894  0.8156142943544992  0.0168053367827964
  0.8529808196730304  0.9496949872642202  0.7566456432442095
  0.1333523576356848  0.4407695186409247  0.3619171023933480
  0.3998799813264931  0.8596929263027959  0.7113699181340105
  0.8589764656126233  0.5991180358303285  0.8223277594997933
  0.4718046097258832  0.7284402104246004  0.0247159676132099
  0.7449822076848599  0.1993106392053698  0.2174502932162159
  0.0593184693369804  0.0568097413918541  0.6694275396761235
  0.7088915123929830  0.6419223207390917  0.3408395817416219
  0.9486936626890676  0.8310762092144064  0.6450942409668069
  0.4360591404674182  0.1426543096150651  0.9965614080308411
  0.3243558457798622  0.4834983910547773  0.8975154158634859
  0.9450674704852112  0.8400030741185951  0.2092248986524643
  0.8904171048138598  0.4335668877905831  0.7416535812297682
  0.6062919458075815  0.8574610588301956  0.0642005293412478
  0.4878682565542981  0.2710938733073670  0.4274307857132751
  0.1389710713674144  0.9651190756812076  0.2546039535965808
  0.0188597319366761  0.5293573029536636  0.4748497550631122
  0.6210951414327758  0.3021244002525746  0.2834455630860357
  0.6562152307015869  0.8966826898609020  0.3374149419982229
  0.6234211187614741  0.9201989552495371  0.9072376225539561
  0.5229305256369076  0.4522150110171601  0.2511524225144229
  0.6765710209498224  0.2361840107928248  0.6024961830322554
  0.2471039680770830  0.5208938527408006  0.4871515166115994
  0.1401446304296366  0.5264522561505163  0.7207853222954193
  0.4883513732134245  0.2550308688474154  0.6184723545135216
  0.3656922644064455  0.2250055488902843  0.9748506510386126
  0.7634517164451402  0.9998639168948945  0.1684532741914526
  0.5073800547026071  0.8325861550305498  0.6935305712293791
  0.9283379673635247  0.4064913482087850  0.4975570630036825
  0.6079692593746018  0.1970937396959241  0.4234151530737456
  0.3367795052425658  0.9044554714428931  0.1649749319497508
  0.8974860287103243  0.3079696978648306  0.8556309482421975
  0.0770501340238579  0.0422238380424118  0.5570636412596153
  0.5124738289266952  0.4312186938977102  0.4938995311921064
  0.0512765603960939  0.6257788244313138  0.7248272805155394
  0.6407331079509079  0.6646830871214069  0.7350553142782605
  0.1914104778741829  0.2182638087430265  0.4035233858436343
  0.9446521361973031  0.2032104808873558  0.8542354837860424
  0.4447141152998991  0.8725570104717223  0.1819543974338751
  0.9557721203144913  0.1515684476965971  0.9508186132657160
  0.7082295082746062  0.4496639300646825  0.3279447478413025
  0.0961922145304458  0.9725178926004198  0.7366917907085374
  0.5694139071392724  0.2458391299842648  0.8472291917675406
  0.2804426947190830  0.3407087158215970  0.3109872338140973
  0.8844318364703673  0.7640269709715803  0.7914197118267515
  0.7724523125390990  0.0187818571863527  0.9503847294490635
  0.9567642434717434  0.2187880714516351  0.1976786402765434
  0.6393807449084192  0.7928887683462398  0.6273690028542013
  0.5465465826557836  0.1533889433206846  0.0262841761378491
  0.4449944016322283  0.6030497003417934  0.6591863867874422
  0.7822976407347632  0.1481392233868410  0.8920249857117795
  0.2623838323592060  0.6282280865423557  0.6360630281334608
  0.0858143009538994  0.2123204699699540  0.6978162104308125
  0.0518739370993066  0.2748446689986511  0.9270427921607367
  0.4187020680495945  0.8146512710956441  0.9774619141263525
  0.8608455846364548  0.4158262161650720  0.9937879532068888
  0.7130812390856633  0.4130584821885142  0.9708365215815780
  0.3662226105174411  0.1017164559016109  0.8263749076655930
  0.6607672534895437  0.4648561767770411  0.8012722171032476
  0.0052736715174626  0.5448939408555633  0.7977509635753606
  0.7665391827130682  0.3907571300396274  0.4902588202315546
  0.8252984756141958  0.5148494169462295  0.6079246495766850
  0.7605396624525789  0.3560754132875065  0.2907822260441555
  0.9768834776865144  0.1067296331156856  0.7267074223979120
  0.9765328375540605  0.4955268506954095  0.1795086359858226
  0.2373296215401872  0.0889918047297429  0.1603324545563827
  0.8927313330942002  0.4087531881592625  0.6294980756810201
  0.0771192306797894  0.3172112009843158  0.0873504554907289
  0.2185376277356955  0.6630727963199983  0.4106886193453030
  0.3157004095136807  0.9718971931466630  0.2658299953567760
  0.9714450418626595  0.3493962545639917  0.7777929303711949
  0.4007079350830047  0.0583435065699588  0.9315554176770461
  0.6655485551453370  0.0460239498081275  0.1298533624169245
  0.5257071028425195  0.4305453869050727  0.0601450775186809
  0.7507906015950460  0.7368198411312572  0.1160516443786237
  0.2838279632498447  0.3088028315530781  0.8252611249192764
  0.6818252728745892  0.5766021884859872  0.0474252574716665
  0.6986197229544672  0.1235293957113561  0.7689387316636577
  0.7949296625326373  0.6297428053040481  0.1234267216037290
  0.3644077736124745  0.3459268031004249  0.1483653865698952
  0.7530775614469825  0.2492619445560929  0.9581987205889880
  0.6250006792178803  0.9688038202114799  0.0551905904579608
  0.2177164347661258  0.1888915815903584  0.8951298445686652
  0.6742746532224513  0.2698902913717295  0.3753565873583760
  0.3832890801460452  0.9254727757621702  0.7963049325581493
  0.1455848849856037  0.6672427265958638  0.7699477177668886
  0.7875458322154012  0.4699439760979678  0.4128681858016578
  0.8265111782796967  0.4961532416098375  0.8537598569720288
  0.6420260554609308  0.6521932923509530  0.5237050542189651
  0.3500875388167929  0.4505842950532374  0.1968318052115519
  0.2066747003352614  0.1349283608088273  0.2825982138077631
  0.0983193084225507  0.3559232672543767  0.2876837785141666
  0.4619027903744137  0.3057926346523161  0.1110403815481917
  0.3755705754661707  0.7080629411088921  0.3564304639875256
  0.7550786022513988  0.4270884041083314  0.5953454243995132
  0.0823493022335711  0.5730371957093755  0.3130302001767373
  0.8926507892078612  0.6370232195517006  0.3890950035054290
  0.1278813004067503  0.9195342678530373  0.9121792064809638
  0.3723566321138691  0.7147198584101131  0.2019437290291779
  0.3976169880621157  0.6485728719345855  0.9760572957261925
  0.7097991214650372  0.1474363593267299  0.1167371188113452
  0.5455876058637334  0.0632916256360840  0.3811337720494888
  0.2003005253514238  0.6927414894835819  0.1151235232389776
  0.1509902334865325  0.7582080318489419  0.0217652106201419
  0.7032177010153408  0.3004500237274970  0.2035631690706954
  0.9559179495771201  0.5350292492746579  0.0654798554250269
  0.1816813238068093  0.2286168387564913  0.9936644390369700
  0.6036124406356155  0.1857642336368228  0.2703051079428062
  0.8084980049437882  0.5620754862056836  0.7156342827117245
  0.1648205646584461  0.2716620472139741  0.1405511978067021
  0.0739518100159899  0.1687590345347117  0.9575691327351472
  0.6165507698452085  0.3700896617607937  0.6978261864863970
  0.1200169208581179  0.5145518182999199  0.8406993018957787
  0.8685150811495373  0.1742380167184093  0.2716313052231557
  0.5095216651735781  0.3157156236555995  0.5256393244598370
  0.8402936826753735  0.2081116190569696  0.1481535354352227
  0.3766789470996487  0.2565131374008291  0.4440788924773547
  0.5556259087401194  0.6235932581387442  0.8579642225897484
  0.5063239446150557  0.4557446152949479  0.8280856489715778
  0.6140950449820246  0.4909802039609402  0.9160606010899295
  0.4266576072057008  0.0234063498775059  0.7689597641291090
  0.8309851195358312  0.0877608188708776  0.1487088099061137
  0.9728049695437487  0.3901331146476610  0.3947626072975642
  0.8700633697779893  0.9423623769878071  0.2259798029774450
  0.1382660816763361  0.8592958278156367  0.2060133478059959
  0.3491998488153567  0.4490985849975233  0.5066807565214216
  0.1124123308976230  0.3862659591108863  0.7808476108894303
  0.5324854910753249  0.0129517236301506  0.4763246276492041
  0.8706677947671052  0.9992590629579173  0.3939494206035681
  0.1918241873976649  0.5117989482343310  0.2964750333485343
  0.5369977532747221  0.5520447783173335  0.0251008742952035
  0.6387359822726547  0.4689564907013140  0.0384419647917431
  0.8974774946704953  0.0416700498171734  0.8710164358544789
  0.3687642365672249  0.6212600546190221  0.2646292362697393
  0.1577531160194216  0.3004001938018081  0.6966467754483049
  0.7062205766266576  0.9728825237390073  0.5914795399049056
  0.2693918545246105  0.7876231886331596  0.7150353595097758
  0.5461813761776214  0.8689076964382687  0.3542779622602710
  0.2152133102534907  0.5971585680108155  0.8237538667755333
  0.5396090932362567  0.5883385994827297  0.3886593087012828
  0.6268476076682169  0.7531725665265673  0.2462572981053858
  0.6054249518721081  0.1942575444384322  0.1537388380053485
  0.3225574202357706  0.5298008513576845  0.1189370192217896
  0.9377936712320126  0.2185647105071961  0.3508873863028933
  0.0534185313265256  0.6329083895992008  0.4667810042644646
  0.3518025002002991  0.2739632034850979  0.5541722112147044
  0.5354214376577227  0.3738398299915072  0.1616329589350052
  0.4614071752264987  0.1962106722734538  0.2637838211496067
  0.5391989111443969  0.7017118856214583  0.3968024232594413
  0.0593451798560496  0.7083684800037117  0.1791943939913064
  0.5067366182134525  0.3038570078538815  0.2567243807925465
  0.4466379782448461  0.5257419763045486  0.3492530263953115
  0.9257356673672443  0.7608005239364730  0.2862292262496830
  0.1671974191720803  0.9665121639226192  0.4699375042664291
  0.8539652282958250  0.3263088447124487  0.4842995509533909
  0.8208685631531881  0.6403227187727344  0.5249685931495066
  0.6949962744593828  0.0735447516781146  0.8749964437247222
  0.9120610347296789  0.7796983680730567  0.8975297236069189
  0.0084070271479533  0.4367977243161112  0.8418181753432910
  0.4134640191762284  0.4028373377008476  0.8026792116447190
  0.9702520993498494  0.6335906774283508  0.1297231491429749
  0.5072612909240255  0.6790645748748719  0.5953617094810463
  0.9447503165326623  0.6085271691977244  0.2968947641624398
  0.6366730053671059  0.7284632599957943  0.3522069316570939
  0.6318005913617075  0.7631918413128410  0.8016803759264016
  0.9552159793516164  0.0070982835215925  0.7728462025021959
  0.3241000075737051  0.6322134302946414  0.0560583238605665
  0.2026635036014839  0.9375486098098567  0.7299960654624940
  0.2425541755693970  0.8710953399196033  0.6459945671598291
  0.5024008911820362  0.8766824994192134  0.5910842542004151
  0.7299046237157664  0.9781794808895348  0.2788999275216020
  0.9142664857500090  0.2239246855917187  0.6031949247640875
  0.3120354938896770  0.7162053956891336  0.4492480412891577
  0.3838411933845592  0.3874928285120841  0.6882106465367744
  0.5674972799547101  0.4691746713469995  0.7365447289595995
  0.7771703898888991  0.7409719716227579  0.7866133746746591
  0.4576729212452992  0.0921185927937016  0.5223159986101613
  0.9164540768130791  0.9405530022552762  0.1188123619645169
  0.1927353063651767  0.7288218005511692  0.9264704803977419
  0.2175620507500835  0.1663363263153999  0.7430598909821337
  0.2321822064457569  0.5897756424832313  0.1624538080510110
  0.7298400647932353  0.3751616058427489  0.7004121283626410
  0.7042301205863755  0.5998111563143727  0.9026623739796026
  0.5375146836471528  0.7241613364829398  0.1819482931606760
  0.2242903657090960  0.5875414565358608  0.0165959352831598
  0.8045347982058864  0.6963484611329083  0.3585301487441436
  0.6946778298819554  0.8410467146239823  0.1273613443372838
  0.8454658966450254  0.3114358710121545  0.5999142234877629
  0.3561385976059602  0.1532239440452431  0.2762561880779979
  0.6745153541976793  0.3437532329509640  0.4560982728272711
  0.0605194710944756  0.8988265367499849  0.6554440053580021
  0.2105611074664160  0.1581252320225119  0.5678859304788345
  0.5014230568253433  0.5456485688842456  0.4907624196220671
  0.4567541507647055  0.7671916110817351  0.8596253210143687
  0.0463126094510640  0.8456732517392490  0.2705084085285956
  0.4610925144084982  0.0561431400009800  0.6698686766123497
  0.4178395075595057  0.4864241812209941  0.0529190365309287
  0.7604791984703700  0.5091682593251899  0.9384667625751650
  0.3186304828522579  0.1546108417315942  0.5226467604109672
  0.7401451897318282  0.5437143341740976  0.1806778020596165
  0.7406525925187213  0.6046950902227508  0.5933882119668855
  0.7998816651898261  0.7379424486168890  0.4686621057174477
  0.5178721541946638  0.4559357322190966  0.6147156821893727