1   
      1.000000000000
     21.668485641479        0.000000000000        0.000000000000
      0.000000000000       21.668485641479        0.000000000000
      0.000000000000        0.000000000000       21.668485641479
Si
 512 
Direct
      0.469760686159       0.174932256341       0.111934453249 
     -0.458458781242       0.140788689256       0.185350671411 
     -0.400519847870       0.034720595926       0.721648991108 
      0.278820246458       0.860401272774      -0.443548381329 
     -0.255310684443       0.362795680761       0.134799733758 
     -0.092951707542       0.249000310898       0.032512620091 
      0.008489239961      -0.143148645759      -0.134818986058 
     -0.160768866539      -0.181808456779      -0.542339265347 
      0.008265005425       0.142454653978      -0.183667853475 
      0.274598747492       0.463475078344       0.550158977509 
      0.983724534512      -0.008945638314       0.680907964706 
      1.061655402184      -0.384696602821       0.232612222433 
      0.212672591209      -0.627066314220      -0.192325919867 
     -0.072022289038       0.418465316296      -0.161419957876 
      0.826857864857      -0.124454095960       0.106956690550 
      0.715547502041      -0.436303049326      -0.014730548486 
     -0.233259275556       0.076322332025      -0.687981843948 
     -0.085371471941       0.909319519997      -0.281704485416 
      0.193169385195       0.836394727230       0.021470757201 
     -0.234919786453       1.269980072975      -0.397109478712 
      0.187226787210      -0.257763475180       0.860592007637 
     -0.082967057824       0.400701999664      -0.006303315517 
      0.535977363586       0.175653785467       0.579981803894 
      0.567821919918       0.764066398144      -0.040385928005 
      0.218240752816       0.016848038882       0.133807942271 
     -0.063162282109       0.074406206608       0.282095849514 
      0.381355732679      -0.175123855472       0.552359163761 
      0.630781412125       0.182375237346      -0.470455557108 
      0.285148739815       0.200744539499      -0.008338207379 
      0.633400738239       0.103437766433       0.405757933855 
      0.051066514105       0.380645364523       0.148503825068 
      0.008014666848      -0.228266894817      -0.519825220108 
      0.115374743938       0.236702993512       0.343773275614 
     -0.018599471077       0.750280261040       0.020875392482 
      0.133968457580       0.616590261459       0.584194004536 
      0.355995833874      -0.393784999847       0.394820332527 
     -0.131936624646       0.311113268137       0.336897313595 
     -0.210774511099       0.098818503320      -0.075547449291 
      0.065058454871      -0.049112431705       0.854326009750 
     -0.063078649342      -0.183086410165       0.413196206093 
      0.319888383150      -1.259362578392      -0.062168419361 
      0.292006045580      -0.074078336358      -0.202924013138 
     -0.249053671956      -0.027351133525       0.688787221909 
     -0.108864963055       0.633561789989       0.213082075119 
      0.532762706280      -0.280406922102       0.487049013376 
     -0.015705315396       0.550896584988       0.633173465729 
      0.461302995682      -0.286494046450       0.739489734173 
      0.584606587887      -0.175971820951      -0.240498304367 
     -0.387536585331      -0.578310251236       0.458692938089 
      0.195372760296       0.058475352824      -0.009160662070 
     -0.157536447048      -0.339193522930      -0.112588219345 
     -0.395112305880       0.428431570530       0.605687022209 
      0.154261872172       0.242655351758       0.242614135146 
      0.102614991367       0.474346250296       0.174332082272 
     -0.117800585926       0.491040438414       0.123130314052 
      0.358577400446      -0.076089859009       0.114312402904 
     -0.209216699004       0.382021397352       0.233222559094 
      0.598172843456       0.805087983608       0.455407887697 
      0.850800395012      -0.437304139137       0.432623207569 
      0.926320612431       0.400012522936       0.350761264563 
      0.275211751461       0.032029081136       0.612522006035 
      0.494739472866       0.590537428856       0.140662938356 
      0.495535403490       0.449974536896       0.376073837280 
      0.995549321175       0.309104621410       0.649645388126 
      0.416824758053      -0.185702189803       1.277103424072 
     -0.646081507206       0.632660508156       0.820223808289 
      0.060047104955       0.149059578776       0.306329220533 
      0.221808895469       0.385678499937       0.487010121346 
     -0.051530890167      -0.462376952171       0.740548729897 
      0.092057727277       0.465897083282       0.516847074032 
      0.691616833210       0.211149424314       0.773359119892 
     -0.020206391811      -0.031141228974       0.119211457670 
      0.501768589020       0.116809487343       0.837961018085 
     -0.040358088911       0.520542681217       1.278429508209 
     -0.243134498596       0.820519924164       0.812812447548 
      1.128823876381      -0.031417500228       0.616786897182 
     -0.003162271110       0.042175404727       0.197552263737 
      0.173609316349       0.146414756775       0.691826641560 
      0.134425789118      -0.137170687318       0.582808971405 
      0.825584828854      -0.046766903251       0.858135879040 
      0.753498136997       0.861167371273       0.658928811550 
      0.108656570315       0.653263270855       0.400411099195 
      0.623111248016       0.327217489481       0.569821655750 
      0.333931237459       0.509552419186      -0.281058251858 
      0.166806802154       0.464715540409       0.438267886639 
     -0.502729892731       0.538064301014       0.313182294369 
      0.042784366757       0.246072873473       0.819165050983 
      0.451389938593       0.383890897036       0.304521799088 
      0.536840498447       0.112761020660       0.670982539654 
     -0.541464626789       0.369306445122       0.561848521233 
      0.147004112601       0.285381376743       0.804505348206 
     -0.181265726686       0.776177704334       0.628561973572 
      0.002902041422       0.240447685122       0.082113660872 
     -0.205926403403       0.274338454008       0.259246557951 
      0.071084052324      -0.312323540449       0.995730638504 
      0.541597604752       0.017841931432       0.810295701027 
     -0.242961436510       0.133233919740       0.652548432350 
     -0.607098102570       0.317076981068       0.976105451584 
      0.357558608055       0.062967494130       1.210465550423 
      0.449781566858       0.610244929790       0.763690173626 
      0.409491658211      -0.287849754095       1.884716272354 
      0.654495716095       0.078097507358       0.514441192150 
      0.100608296692       0.522830009460       0.989217221737 
      0.783761978149      -0.096560418606       0.563679456711 
      0.400524109602       0.495950490236       0.634296119213 
     -0.121022865176       0.725930750370      -0.027535852045 
     -0.140750348568      -0.439046144485       1.042522192001 
     -0.008529675193       0.412051141262       0.678419470787 
      0.559302806854       0.284001797438       1.030276179314 
      0.595461130142      -0.354286491871       0.688981890678 
      0.727540194988       0.298320114613       0.831128716469 
      0.364150077105      -0.239126235247       1.714906334877 
     -0.050374027342       0.599660873413       1.002352476120 
      0.319285511971      -0.166089385748       0.461282730103 
     -0.395776301622       0.445907831192       1.355447649956 
     -0.534770727158       0.309053778648       0.800838172436 
      0.294412881136       0.114064328372       1.342404603958 
     -0.101901590824       0.665117681026       0.691090583801 
      0.307660073042       0.352226614952       1.032681703568 
      0.661967039108       0.947636783123       0.746789395809 
      0.031898468733       0.135610848665       1.064446926117 
      0.909813523293       0.189631432295       0.658293306828 
      0.129234418273       0.759592950344      -0.380027741194 
      0.522099554539       0.568943798542       0.885997295380 
      0.077701024711       0.425703585148       0.944136142731 
      0.471993327141       0.075673073530       1.308455586433 
      1.077178955078      -0.133611083031       1.157806634903 
      1.099042892456       0.801218807697       0.888468980789 
      0.442778527737      -0.019775761291      -0.385305315256 
      0.276321798563       0.627414166927       0.272564113140 
     -0.089403420687       0.178791925311      -0.587614655495 
      0.454844027758       0.010899850167       0.510978639126 
      0.861126601696       1.096091270447      -0.157109245658 
     -0.386045426130       0.672950208187      -0.203927859664 
      0.156744062901       0.550306439400       0.120554775000 
     -0.167362600565       0.849733471870       0.888504564762 
      0.443596512079       0.550342857838      -0.041623909026 
     -0.211350381374       0.340509355068       1.034104585648 
      1.071614980698       0.603842020035      -0.078460909426 
      0.426119655371       1.004631519318       0.148894459009 
      0.639538645744       0.866217672825      -0.463702291250 
      0.163316935301       0.577778100967      -0.130881875753 
      0.817730188370       0.159179747105       0.360576957464 
      0.661072134972       0.581953644753       0.286348670721 
      0.279289841652       1.109003663063       0.151115059853 
     -0.082539290190       0.625480234623      -0.409217596054 
     -0.019147327170       0.849792540073       0.971574306488 
      0.213079288602       0.616369962692      -0.492540180683 
     -0.157520711422       1.046653509140       0.238795876503 
      0.213189676404       0.863617420197       0.230565771461 
     -0.082952097058       1.038540124893       0.064053468406 
      0.388030409813       1.076004028320       0.378339856863 
      0.452176570892       0.911344885826       0.317435652018 
      0.094032898545       0.067956067622       0.238838478923 
     -0.459794074297       0.906739950180      -0.182147487998 
      0.661814451218       0.817154169083       0.218719944358 
      0.782745122910       1.011388421059       0.540110707283 
      0.756285786629       1.102223753929      -0.514393270016 
      0.286847621202       0.785040259361       0.121166102588 
      1.054645061493       0.866667807102       0.506458282471 
      0.242615357041       0.026019254699       0.306125998497 
     -0.345273345709       1.307057380676       0.978269159794 
      0.422633200884       0.166704535484       0.426700979471 
      0.885348618031       0.329047232866       0.228657454252 
      0.013235780410       0.785299658775       0.121652543545 
     -0.110456384718       1.130049467087       0.569137334824 
      0.214783638716       1.056937932968       0.458064973354 
      0.356305718422       0.614828109741       0.708627581596 
      0.254158288240       0.582854151726       0.370088517666 
      1.150680661201       0.882126331329       0.837374985218 
     -0.207867115736       0.173366263509      -0.440548926592 
      0.288546442986       0.497973829508      -1.181090116501 
      0.204606026411       0.518713295460      -0.052459940314 
      0.088941097260       0.519950985909      -0.388889342546 
      0.542058289051       0.807107627392       1.134095788002 
      1.025250196457       0.745220780373       0.650410413742 
     -0.076705493033       0.511132776737       0.497951149940 
     -0.393229961395       0.600567996502       0.435221046209 
      0.766194105148       0.827822685242       0.246175900102 
      0.024514013901       1.029110670090       0.038150765002 
     -0.896366357803       0.856569051743       0.407446116209 
      0.028508352116       0.379793524742       0.527554810047 
      0.744384407997       0.796325206757       0.348073810339 
     -0.313943326473       0.835284650326       0.896232306957 
      0.174269691110       0.727227032185       0.192296758294 
     -0.027179051191       0.673700630665       0.510114073753 
      0.562824904919       0.865845024586       1.225125551224 
      0.963110089302       0.423219621181       0.092809945345 
      0.834922015667       0.864420473576      -0.002825929783 
      0.014144658111       1.014748215675       0.928589820862 
      0.346915274858       0.881634116173       0.324671655893 
      0.059571206570       0.777202963829      -0.251744091511 
     -0.122557103634       0.025124803185       0.587643384933 
      0.198025852442       0.382814675570       0.239368751645 
     -0.223349869251       0.774141013622       1.002257823944 
      0.437850147486       0.778662979603       0.379015415907 
      0.067360892892      -0.246412560344       0.390953034163 
      0.307734370232       0.657603383064       0.544237792492 
      0.248996168375       0.831306755543       0.838998317719 
      0.401534408331       0.229031518102       0.643414855003 
     -0.327849984169       0.706468045712       1.083930850029 
     -0.126643076539       0.843321979046       0.556170046329 
     -0.137042999268       0.529487788677       0.225372955203 
      0.185565188527       0.976985752583       0.386075079441 
      0.091748706996       0.852088212967       0.986572086811 
      0.382032245398       0.593071103096       0.499006837606 
      0.644657552242       0.292408943176       0.711634695530 
      0.745303392410       0.750016272068       0.546856164932 
      0.275053709745       1.031578063965       0.769221007824 
      0.256392896175       1.288581848145       0.233204916120 
      0.736588597298       0.843434453011       0.488609582186 
      0.068684376776       1.106137394905       0.901023864746 
      0.225355789065       0.473984360695       0.085444383323 
      0.199409678578       0.714229464531       0.692189395428 
      0.532698035240       0.745595693588       0.812107682228 
      0.507154941559       1.166079521179       0.361770480871 
     -0.056327454746       0.974103152752       0.322661399841 
      0.384685069323       0.514145135880       0.211040228605 
      0.981745481491       1.103907346725       0.378883659840 
      0.930941045284       1.269145369530       0.474596470594 
      0.312943249941       0.961481988430       0.535220801830 
      0.210682854056       0.993193387985       0.689519524574 
      0.198499634862       1.062996864319       0.843119680882 
      0.886881470680       0.342024862766       1.081581830978 
      0.252994656563       0.721367001534       1.322229504585 
      0.086054205894       0.631399214268       1.088033080101 
     -0.332454532385       0.421512275934       0.880642831326 
      0.173115149140       0.431278854609       0.893326401711 
      0.543668925762       0.983510077000       0.573693871498 
      0.067169286311       0.290086984634       0.571894884109 
      0.616555631161       0.593422710896       0.591793954372 
     -0.320628464222       0.937775969505       0.854646265507 
     -0.044283691794       0.680434763432       0.785350739956 
      0.132031604648       1.112317323685       1.503509283066 
      0.728060126305       0.873278915882      -0.010796374641 
      0.360490351915       0.382956981659       0.893834173679 
      0.525842249393      -0.278095602989       0.653446197510 
      0.365215599537       1.250007629395       0.377511709929 
      0.296566903591       1.256291985512       1.087787151337 
      0.491049230099       1.280213594437       0.694837868214 
      0.225483283401       1.310282468796       0.406174331903 
     -0.498703539371       0.943521618843       1.097863554955 
      0.246439531446       0.503518998623       0.654875099659 
      0.108041584492       1.324233055115       0.970569252968 
     -0.206350192428       0.694109201431       0.700743079185 
      0.086282290518       1.168558835983       1.198467493057 
      0.100499823689       1.424924492836       0.668030381203 
      0.177830040455       0.825240790844       1.131747603416 
     -0.225849032402       1.467114567757       1.114999532700 
     -0.171164289117       0.660668492317       1.300815820694 
     -0.207591682673       1.243388056755       0.897407650948 
      0.150095239282       1.334615826607       0.624910235405 
      0.201931104064       0.376107960939       0.130348891020 
      0.827887833118       0.785017549992       1.167145729065 
      0.514486491680       0.875443875790       0.459646135569 
      0.117774695158       1.059367656708       0.408319532871 
      0.386255234480      -0.398224234581       0.144656315446 
      0.426675617695       0.083363652229       0.071831777692 
      0.662317693233       0.112776234746       0.299470096827 
      0.378930866718      -0.463041603565      -0.131355345249 
      0.393266916275      -0.867571115494       0.595176339149 
      0.666721522808       0.067758373916       0.198341444135 
      0.294192612171      -0.772732019424      -0.331787347794 
      0.921771645546       0.021818507463       0.418809711933 
      1.410960555077      -0.121402487159      -0.583927929401 
      0.450354516506      -0.114781811833      -0.127807155252 
      1.131992816925      -0.089022405446       0.074769109488 
      0.341328769922       0.167188793421      -0.174406230450 
      0.029401250184       0.293196082115       0.307733625174 
      0.696138501167       0.490117400885       0.468266010284 
      1.040750741959      -0.489506065845       0.353682577610 
      1.283306241035       0.057931769639       0.053678430617 
      0.646798670292       0.603104650974       0.109492167830 
     -0.033639568835       0.014792324044      -0.477902084589 
      1.328017473221       0.294029712677      -0.248077869415 
      0.976449310780       0.552969574928      -0.096037976444 
      1.233247160912      -0.013055738993      -0.084041707218 
      0.856180012226       0.096404746175      -0.332135885954 
      0.563097715378       0.285395026207       0.140591204166 
      0.948347449303       0.306309103966      -0.048785604537 
      0.573033452034      -0.005434697960      -0.041438426822 
      0.566094398499       0.405555754900      -0.088529489934 
      0.962714850903      -0.090482756495       0.548025608063 
      1.334989786148       0.803163349628       0.024372857064 
      0.840517520905       0.980816841125      -0.244978025556 
      1.110898971558       0.427955687046       0.350701928139 
      0.419727921486      -0.150110468268      -0.305915862322 
      0.909054994583       0.595187723637      -0.169933408499 
      0.519687891006      -0.301784098148       0.030337655917 
      0.745441854000       0.140461921692       0.181233435869 
      1.080449819565       0.109027691185       0.648937523365 
      0.656647861004      -0.336955219507       0.361156165600 
      0.919220805168       0.768609702587       0.674604833126 
      0.444033920765       0.130547910929       0.974223613739 
      0.308746784925      -0.523659944534       0.928449034691 
      0.933767259121      -0.192866906524       0.193615734577 
      0.900377333164       0.438241630793       0.736273944378 
      0.595559358597      -0.162817910314       0.042459685355 
      0.457165777683       0.308761566877       0.387811839581 
      1.101484775543      -0.070014707744       0.325305730104 
      1.025615453720       0.528263986111       0.460430353880 
      0.648858964443       0.357706725597       0.311643630266 
      0.647722423077      -0.090667307377       0.277521550655 
      0.594847381115      -1.100916862488      -0.091245286167 
      0.481633543968       0.462943017483       0.230932995677 
      0.662515997887       0.240968391299       0.617566466331 
      1.252410531044       0.527322173119       0.464336067438 
      0.175271034241       0.548589050770       0.726682364941 
      0.524346530437       0.285604089499       0.585867464542 
      0.349977672100       0.236972793937      -0.087567657232 
      0.752440631390      -0.050274312496       0.134134322405 
      0.524464070797      -0.170683294535       0.668310701847 
      0.899620771408       0.411976516247       0.454732835293 
      1.589477658272       0.200500026345       0.428103148937 
      0.276731848717      -0.058973886073       0.184959664941 
      0.892552793026       0.274945348501      -0.134429872036 
      1.068393468857       0.044994790107       0.563156127930 
      1.488219380379       0.468664079905       0.521124422550 
      1.042691230774       0.667565882206       0.721595466137 
      0.685639798641       0.707230091095       0.673064410686 
      0.248398527503      -0.787302851677       0.458722084761 
      0.926021754742       0.172521382570       0.879416167736 
      0.444709658623      -0.143883824348       1.138534188271 
      0.995587110519       1.156109213829       0.962284743786 
      0.698357641697       0.499755263329       0.355913519859 
      0.075429186225      -0.062348093837       0.707688868046 
      0.628281176090       0.319735318422       0.873726010323 
      0.300763159990       0.323106795549       0.327019214630 
      0.906565666199      -0.222480937839       0.783704936504 
      0.745821118355       0.999126911163       0.915635704994 
     -0.013932138681       0.208552032709       1.183554291725 
      0.673726260662       0.800933957100       0.615590810776 
      1.536057472229       0.174503624439       0.022660071030 
      0.448474496603       0.590854167938       0.656495630741 
      0.769912898540       0.157382726669       0.832366168499 
      1.220589876175      -0.387197613716       0.652768313885 
      0.046486698091       0.235030800104      -0.290919929743 
      0.038881022483       0.251268088818       0.931039988995 
      0.437695682049       0.827302813530       0.033144876361 
      0.819184243679       0.401532083750      -0.056152045727 
      0.714476585388       0.399679094553      -0.022739205509 
      0.401951342821       0.077088236809       0.827124774456 
      0.677295088768       0.498393416405       0.804621577263 
      1.012525796890       0.490645855665      -0.180269822478 
      0.755244016647       0.400424808264       0.481335818768 
      0.834088861942       0.489217102528      -0.384462624788 
      0.750387609005       0.404539406300       0.334575682878 
      0.994952499866       0.140027135611       0.705990910530 
      1.013473629951       0.530520081520       0.186529964209 
      1.201614022255       0.080294176936       1.221511363983 
      0.936866819859       0.461846530437       0.595979750156 
      1.085414648056       0.309238553047       0.073957338929 
      0.214931219816       0.676190078259       0.415818601847 
      0.330245882273       0.977334618568       1.270290136337 
      0.962965190411       0.320207297802       0.795958936214 
      0.390148699284       0.047014053911       0.929366409779 
      0.679875612259       0.023385964334       1.098462104797 
      0.448689937592       0.444153606892       1.088540911674 
      0.756442904472      -0.296384930611       0.151940524578 
      0.290284037590       0.309148818254       0.855074882507 
      0.687839984894       0.477647989988       1.046600341797 
      0.702454805374       0.048467732966       0.759210705757 
      0.825066566467      -0.372980594635       1.123316168785 
      1.305024266243       0.347110480070       0.145737469196 
      0.744180798531       0.246037751436       0.995397388935 
      0.601690351963      -0.050969060510       1.054051518440 
      1.235438823700       0.131998702884       0.921413242817 
      0.658187627792       0.269343018532       0.375831604004 
      0.397470593452      -0.089601919055       0.781053364277 
      0.132623702288       0.699231266975       0.774631559849 
      0.839297831059      -0.537009835243       0.378877639771 
      0.786573886871      -0.498053818941       0.812203526497 
      0.625948309898       0.670998513699       0.514678418636 
      0.281929045916       0.488946020603       1.178207397461 
      1.159543514252       0.138637423515       0.349150151014 
      1.100072979927       0.335948109627       1.235789537430 
      0.465388715267       0.342517793179       1.130974769592 
      0.352295607328      -0.288953065872       0.365668654442 
      0.757015049458       0.416542947292       0.587459623814 
      1.115910172462       0.577909469604       0.318821877241 
      0.906888544559       0.658989131451       0.425346374512 
      1.138172745705       0.936541438103       0.930496871471 
      0.271819710732      -0.227971822023       1.228674173355 
      1.438360214233       0.656608879566       0.971638441086 
      0.761859714985       0.098988451064       0.083436727524 
      0.533188521862       1.066664814949       0.399463951588 
      1.229771018028       0.691797137260       0.103684507310 
      0.170117482543       0.730616629124       0.020218275487 
      0.659952104092       0.258634954691       0.192254945636 
      1.004473090172       0.513092100620       0.041409015656 
      1.191237092018       0.255805552006      -0.013949564658 
      0.622437357903       0.214560687542       0.283994108438 
      0.839521944523       0.528008103371      -0.280849874020 
      0.186975628138       1.270611524582       0.095194816589 
      1.142959117889       0.155299648643      -0.029422856867 
      0.609346032143       0.396737098694      -0.291374474764 
      1.126248836517       0.491087943316      -0.187960907817 
      0.885806262493       0.217699721456       0.226554438472 
      1.509212732315       0.377617746592       0.461280614138 
      0.763255596161       1.250672101974       0.152650833130 
      0.371069639921       0.324889034033      -0.544969201088 
      0.560647845268       0.674880802631      -0.108552500606 
      0.520023345947       0.469123095274      -0.163062229753 
      0.615370333195       0.546881973743      -0.060231152922 
      0.446667999029       1.004926919937      -0.239961683750 
      0.828652679920       1.028388500214       0.131149619818 
      1.025206804276       0.367413491011       0.384655714035 
      0.855467557907       0.943040907383       0.266444385052 
      1.107876658440      -0.158670514822       0.260296285152 
      1.379771947861       0.488382130861       0.527447581291 
      1.107226490974       1.385345339775      -0.228915393353 
      1.548751950264       0.978762686253       0.464777022600 
      0.818304121494       1.060403227806       0.406207770109 
      1.160042524338       0.486401200294       0.268217265606 
      0.508568882942       0.530046343803       0.046917453408 
      0.586104691029       1.464322209358       0.002894965699 
      0.911717414856       1.010542631149      -0.113039076328 
      0.383124738932       0.619590163231       0.251834958792 
      0.152200534940       0.254081338644       0.700576901436 
      0.708096086979       1.043425202370       0.611195921898 
      0.261623084545       0.795447587967       0.736048221588 
      0.516988337040       0.824654102325       0.316816180944 
      0.244471102953       0.594094157219       0.800282001495 
      0.501048624516       0.592182755470       0.412124276161 
      0.612319946289       0.685380280018       0.174623385072 
      0.643651008606       1.162305355072       0.146118283272 
      1.316715717316       0.537074804306       1.083330869675 
      0.938993394375       0.231390014291       0.321893692017 
      1.066382884979       0.621350586414       0.495245724916 
      0.323354125023       0.253557682037       0.522615432739 
      0.550975084305       0.390323191881       1.179849624634 
      0.522773325443       0.238265901804       0.234989166260 
     -0.450092047453       0.683448553085       0.386733919382 
      0.070721425116       0.703060269356       0.167217776179 
      0.545506298542       0.338734626770       0.274784266949 
      0.389332830906       0.534870803356       0.319599360228 
      0.897909939289       0.737884104252       0.348662197590 
      0.206962093711       0.987199366093       0.539716839790 
      0.836360156536       1.327732205391       0.479382485151 
      0.837590098381       0.569239377975       0.542457520962 
      0.695482373238       0.083168476820      -0.134417518973 
      0.923833191395       0.789620161057       0.892313957214 
      1.031485557556       0.386614292860       0.853238523006 
      1.427596569061       0.411392301321      -0.188876494765 
      0.986648261547       0.598456203938       0.106295071542 
      0.442867249250       0.682507216930       0.597602844238 
      0.971479952335       0.626888275146       0.288600534201 
      1.648741602898       0.760879337788       0.309196889400 
     -0.327065557241       0.760245263577       0.769948184490 
      0.945843696594       0.992924034595       0.782573282719 
      0.357872426510       0.695086002350       1.030279397964 
      0.128873571754       0.842156708241       0.692826032639 
      0.265028268099      -0.101561024785       0.696838557720 
      0.534381508827       0.875288784504       1.567717909813 
      0.748781442642       0.933946490288       1.241427898407 
      0.921613872051       1.270537972450       0.584118306637 
      0.303863227367       0.726507663727       1.460606098175 
      0.410227358341       0.357900619507       0.717934668064 
      0.582755386829       0.491593927145       0.751856565475 
      0.812760531902       0.727627098560       0.803542315960 
      0.466548591852       1.120200037956       0.517677128315 
      0.904851973057       0.910225749016       0.173974618316 
      1.229456901550       0.682855010033       0.944525837898 
      1.246369361877       1.136762738228       0.775410771370 
      0.213663950562       0.564571142197       0.210171550512 