generated by phonopy
   1.0
    11.6009237766000002    0.0000000000000000    0.0000000000000000
     5.8004618883000001   10.0466946977999996    0.0000000000000000
     5.8004618883000001    3.3488982326999999    9.4721145992999993
Si
  54
Direct
  0.2512408742122282  0.2459077393408762  0.2528880665650641
  0.5811974769948806  0.2523760950120204  0.2494885805525262
  0.9166666666666665  0.2500000000000000  0.2500000000000000
  0.2499999999999999  0.5833333333333331  0.2500000000000000
  0.5833333333333331  0.5833333333333331  0.2500000000000000
  0.9166666666666664  0.5833333333333331  0.2500000000000000
  0.2499999999999999  0.9166666666666667  0.2500000000000000
  0.5833333333333331  0.9166666666666667  0.2500000000000000
  0.9166666666666666  0.9166666666666667  0.2500000000000000
  0.2500000000000000  0.2500000000000000  0.5833333333333333
  0.5833333333333331  0.2500000000000000  0.5833333333333333
  0.9166666666666664  0.2500000000000000  0.5833333333333333
  0.2500000000000000  0.5833333333333331  0.5833333333333333
  0.5833333333333330  0.5833333333333331  0.5833333333333333
  0.9166666666666666  0.5833333333333331  0.5833333333333333
  0.2499999999999998  0.9166666666666667  0.5833333333333333
  0.5833333333333330  0.9166666666666667  0.5833333333333333
  0.9166666666666666  0.9166666666666667  0.5833333333333333
  0.2500000000000001  0.2499999999999999  0.9166666666666665
  0.5833333333333331  0.2499999999999999  0.9166666666666665
  0.9166666666666666  0.2499999999999999  0.9166666666666665
  0.2500000000000001  0.5833333333333331  0.9166666666666665
  0.5833333333333330  0.5833333333333331  0.9166666666666665
  0.9166666666666666  0.5833333333333331  0.9166666666666665
  0.2499999999999998  0.9166666666666667  0.9166666666666665
  0.5833333333333333  0.9166666666666667  0.9166666666666665
  0.9166666666666666  0.9166666666666667  0.9166666666666665
  0.1666666666666667  0.1666666666666667  0.1666666666666667
  0.4999999999999998  0.1666666666666667  0.1666666666666667
  0.8333333333333333  0.1666666666666667  0.1666666666666667
  0.1666666666666667  0.5000000000000000  0.1666666666666667
  0.5000000000000000  0.5000000000000000  0.1666666666666667
  0.8333333333333331  0.5000000000000000  0.1666666666666667
  0.1666666666666666  0.8333333333333331  0.1666666666666667
  0.5000000000000000  0.8333333333333331  0.1666666666666667
  0.8333333333333333  0.8333333333333331  0.1666666666666667
  0.1666666666666667  0.1666666666666666  0.5000000000000000
  0.4999999999999999  0.1666666666666666  0.5000000000000000
  0.8333333333333331  0.1666666666666666  0.5000000000000000
  0.1666666666666666  0.5000000000000000  0.5000000000000000
  0.5000000000000000  0.5000000000000000  0.5000000000000000
  0.8333333333333330  0.5000000000000000  0.5000000000000000
  0.1666666666666666  0.8333333333333333  0.5000000000000000
  0.4999999999999999  0.8333333333333333  0.5000000000000000
  0.8333333333333334  0.8333333333333333  0.5000000000000000
  0.1666666666666667  0.1666666666666667  0.8333333333333333
  0.4999999999999999  0.1666666666666667  0.8333333333333333
  0.8333333333333334  0.1666666666666667  0.8333333333333333
  0.1666666666666667  0.5000000000000000  0.8333333333333333
  0.5000000000000001  0.5000000000000000  0.8333333333333333
  0.8333333333333331  0.5000000000000000  0.8333333333333333
  0.1666666666666668  0.8333333333333333  0.8333333333333333
  0.4999999999999999  0.8333333333333333  0.8333333333333333
  0.8333333333333334  0.8333333333333333  0.8333333333333333
