generated by phonopy
   1.0
    11.6009237766000002    0.0000000000000000    0.0000000000000000
     5.8004618883000001   10.0466946977999996    0.0000000000000000
     5.8004618883000001    3.3488982326999999    9.4721145992999993
Si
  54
Direct
  0.2500000000000000  0.2500000000000000  0.2500000000000000
  0.5833333333333333  0.2500000000000000  0.2500000000000000
  0.9166666666666666  0.2500000000000000  0.2500000000000000
  0.2500000000000000  0.5833333333333333  0.2500000000000000
  0.5833333333333333  0.5833333333333333  0.2500000000000000
  0.9166666666666666  0.5833333333333333  0.2500000000000000
  0.2500000000000000  0.9166666666666666  0.2500000000000000
  0.5833333333333333  0.9166666666666666  0.2500000000000000
  0.9166666666666666  0.9166666666666666  0.2500000000000000
  0.2500000000000000  0.2500000000000000  0.5833333333333333
  0.5833333333333333  0.2500000000000000  0.5833333333333333
  0.9166666666666666  0.2500000000000000  0.5833333333333333
  0.2500000000000000  0.5833333333333333  0.5833333333333333
  0.5833333333333333  0.5833333333333333  0.5833333333333333
  0.9166666666666666  0.5833333333333333  0.5833333333333333
  0.2500000000000000  0.9166666666666666  0.5833333333333333
  0.5833333333333333  0.9166666666666666  0.5833333333333333
  0.9166666666666666  0.9166666666666666  0.5833333333333333
  0.2500000000000000  0.2500000000000000  0.9166666666666666
  0.5833333333333333  0.2500000000000000  0.9166666666666666
  0.9166666666666666  0.2500000000000000  0.9166666666666666
  0.2500000000000000  0.5833333333333333  0.9166666666666666
  0.5833333333333333  0.5833333333333333  0.9166666666666666
  0.9166666666666666  0.5833333333333333  0.9166666666666666
  0.2500000000000000  0.9166666666666666  0.9166666666666666
  0.5833333333333333  0.9166666666666666  0.9166666666666666
  0.9166666666666666  0.9166666666666666  0.9166666666666666
  0.1666666666666667  0.1666666666666667  0.1666666666666667
  0.5000000000000000  0.1666666666666667  0.1666666666666667
  0.8333333333333333  0.1666666666666667  0.1666666666666667
  0.1666666666666667  0.5000000000000000  0.1666666666666667
  0.5000000000000000  0.5000000000000000  0.1666666666666667
  0.8333333333333333  0.5000000000000000  0.1666666666666667
  0.1666666666666667  0.8333333333333333  0.1666666666666667
  0.5000000000000000  0.8333333333333333  0.1666666666666667
  0.8333333333333333  0.8333333333333333  0.1666666666666667
  0.1666666666666667  0.1666666666666667  0.5000000000000000
  0.5000000000000000  0.1666666666666667  0.5000000000000000
  0.8333333333333333  0.1666666666666667  0.5000000000000000
  0.1666666666666667  0.5000000000000000  0.5000000000000000
  0.5000000000000000  0.5000000000000000  0.5000000000000000
  0.8333333333333333  0.5000000000000000  0.5000000000000000
  0.1666666666666667  0.8333333333333333  0.5000000000000000
  0.5000000000000000  0.8333333333333333  0.5000000000000000
  0.8333333333333333  0.8333333333333333  0.5000000000000000
  0.1666666666666667  0.1666666666666667  0.8333333333333333
  0.5000000000000000  0.1666666666666667  0.8333333333333333
  0.8333333333333333  0.1666666666666667  0.8333333333333333
  0.1666666666666667  0.5000000000000000  0.8333333333333333
  0.5000000000000000  0.5000000000000000  0.8333333333333333
  0.8333333333333333  0.5000000000000000  0.8333333333333333
  0.1666666666666667  0.8333333333333333  0.8333333333333333
  0.5000000000000000  0.8333333333333333  0.8333333333333333
  0.8333333333333333  0.8333333333333333  0.8333333333333333
